*Heading
** Job name: Load1Ela Model name: Load1Ela
** Generated by: Abaqus/CAE 2020
*Preprint, echo=NO, model=NO, history=NO, contact=NO
**
** PARTS
**
*Part, name=PLATE
*Node
      1,           0.,   18.6132145,           0.
      2,           0.,   18.6132145,           2.
      3,           0.,          50.,           2.
      4,           0.,          50.,           0.
      5,   18.6132145,           0.,           0.
      6,   18.6132145,           0.,           2.
      7,          50.,          50.,           0.
      8,          50.,           0.,           0.
      9,          50.,          50.,           2.
     10,          50.,           0.,           2.
     11,          10.,           0.,           2.
     12,           0.,          10.,           2.
     13,           0.,          10.,           0.
     14,          10.,           0.,           0.
     15,           0.,   48.2562904,           0.
     16,           0.,   46.5125809,           0.
     17,           0.,   44.7688675,           0.
     18,           0.,   43.0251579,           0.
     19,           0.,   41.2814484,           0.
     20,           0.,   39.5377388,           0.
     21,           0.,   37.7940292,           0.
     22,           0.,   36.0503159,           0.
     23,           0.,   34.3066063,           0.
     24,           0.,   32.5628967,           0.
     25,           0.,   30.8191872,           0.
     26,           0.,   29.0754757,           0.
     27,           0.,   27.3317661,           0.
     28,           0.,   25.5880547,           0.
     29,           0.,   23.8443451,           0.
     30,           0.,   22.1006355,           0.
     31,           0.,   20.3569241,           0.
     32,           0.,   18.6132145,           1.
     33,   2.42951202,   18.4539757,           0.
     34,   4.81745434,   17.9789848,           0.
     35,   7.12296867,   17.1963673,           0.
     36,   9.30660725,   16.1195164,           0.
     37,    11.331007,   14.7668552,           0.
     38,   13.1615295,   13.1615295,           0.
     39,   14.7668552,    11.331007,           0.
     40,   16.1195164,   9.30660725,           0.
     41,   17.1963673,   7.12296867,           0.
     42,   17.9789848,   4.81745434,           0.
     43,   18.4539757,   2.42951202,           0.
     44,           0.,   20.3569241,           2.
     45,           0.,   22.1006355,           2.
     46,           0.,   23.8443451,           2.
     47,           0.,   25.5880547,           2.
     48,           0.,   27.3317661,           2.
     49,           0.,   29.0754757,           2.
     50,           0.,   30.8191872,           2.
     51,           0.,   32.5628967,           2.
     52,           0.,   34.3066063,           2.
     53,           0.,   36.0503159,           2.
     54,           0.,   37.7940292,           2.
     55,           0.,   39.5377388,           2.
     56,           0.,   41.2814484,           2.
     57,           0.,   43.0251579,           2.
     58,           0.,   44.7688675,           2.
     59,           0.,   46.5125809,           2.
     60,           0.,   48.2562904,           2.
     61,   2.42951202,   18.4539757,           2.
     62,   4.81745434,   17.9789848,           2.
     63,   7.12296867,   17.1963673,           2.
     64,   9.30660725,   16.1195164,           2.
     65,    11.331007,   14.7668552,           2.
     66,   13.1615295,   13.1615295,           2.
     67,   14.7668552,    11.331007,           2.
     68,   16.1195164,   9.30660725,           2.
     69,   17.1963673,   7.12296867,           2.
     70,   17.9789848,   4.81745434,           2.
     71,   18.4539757,   2.42951202,           2.
     72,           0.,          50.,           1.
     73,     2.173913,          50.,           2.
     74,     4.347826,          50.,           2.
     75,   6.52173901,          50.,           2.
     76,   8.69565201,          50.,           2.
     77,    10.869565,          50.,           2.
     78,    13.043478,          50.,           2.
     79,    15.217391,          50.,           2.
     80,    17.391304,          50.,           2.
     81,    19.565218,          50.,           2.
     82,     21.73913,          50.,           2.
     83,    23.913044,          50.,           2.
     84,    26.086956,          50.,           2.
     85,     28.26087,          50.,           2.
     86,    30.434782,          50.,           2.
     87,    32.608696,          50.,           2.
     88,    34.782608,          50.,           2.
     89,   36.9565201,          50.,           2.
     90,   39.1304359,          50.,           2.
     91,    41.304348,          50.,           2.
     92,     43.47826,          50.,           2.
     93,   45.6521721,          50.,           2.
     94,    47.826088,          50.,           2.
     95,     2.173913,          50.,           0.
     96,     4.347826,          50.,           0.
     97,   6.52173901,          50.,           0.
     98,   8.69565201,          50.,           0.
     99,    10.869565,          50.,           0.
    100,    13.043478,          50.,           0.
    101,    15.217391,          50.,           0.
    102,    17.391304,          50.,           0.
    103,    19.565218,          50.,           0.
    104,     21.73913,          50.,           0.
    105,    23.913044,          50.,           0.
    106,    26.086956,          50.,           0.
    107,     28.26087,          50.,           0.
    108,    30.434782,          50.,           0.
    109,    32.608696,          50.,           0.
    110,    34.782608,          50.,           0.
    111,   36.9565201,          50.,           0.
    112,   39.1304359,          50.,           0.
    113,    41.304348,          50.,           0.
    114,     43.47826,          50.,           0.
    115,   45.6521721,          50.,           0.
    116,    47.826088,          50.,           0.
    117,   18.6132145,           0.,           1.
    118,   20.3569241,           0.,           0.
    119,   22.1006355,           0.,           0.
    120,   23.8443451,           0.,           0.
    121,   25.5880547,           0.,           0.
    122,   27.3317661,           0.,           0.
    123,   29.0754757,           0.,           0.
    124,   30.8191872,           0.,           0.
    125,   32.5628967,           0.,           0.
    126,   34.3066063,           0.,           0.
    127,   36.0503159,           0.,           0.
    128,   37.7940292,           0.,           0.
    129,   39.5377388,           0.,           0.
    130,   41.2814484,           0.,           0.
    131,   43.0251579,           0.,           0.
    132,   44.7688675,           0.,           0.
    133,   46.5125809,           0.,           0.
    134,   48.2562904,           0.,           0.
    135,   20.3569241,           0.,           2.
    136,   22.1006355,           0.,           2.
    137,   23.8443451,           0.,           2.
    138,   25.5880547,           0.,           2.
    139,   27.3317661,           0.,           2.
    140,   29.0754757,           0.,           2.
    141,   30.8191872,           0.,           2.
    142,   32.5628967,           0.,           2.
    143,   34.3066063,           0.,           2.
    144,   36.0503159,           0.,           2.
    145,   37.7940292,           0.,           2.
    146,   39.5377388,           0.,           2.
    147,   41.2814484,           0.,           2.
    148,   43.0251579,           0.,           2.
    149,   44.7688675,           0.,           2.
    150,   46.5125809,           0.,           2.
    151,   48.2562904,           0.,           2.
    152,          50.,    47.826088,           0.
    153,          50.,   45.6521721,           0.
    154,          50.,     43.47826,           0.
    155,          50.,    41.304348,           0.
    156,          50.,   39.1304359,           0.
    157,          50.,   36.9565201,           0.
    158,          50.,    34.782608,           0.
    159,          50.,    32.608696,           0.
    160,          50.,    30.434782,           0.
    161,          50.,     28.26087,           0.
    162,          50.,    26.086956,           0.
    163,          50.,    23.913044,           0.
    164,          50.,     21.73913,           0.
    165,          50.,    19.565218,           0.
    166,          50.,    17.391304,           0.
    167,          50.,    15.217391,           0.
    168,          50.,    13.043478,           0.
    169,          50.,    10.869565,           0.
    170,          50.,   8.69565201,           0.
    171,          50.,   6.52173901,           0.
    172,          50.,     4.347826,           0.
    173,          50.,     2.173913,           0.
    174,          50.,          50.,           1.
    175,          50.,           0.,           1.
    176,          50.,    47.826088,           2.
    177,          50.,   45.6521721,           2.
    178,          50.,     43.47826,           2.
    179,          50.,    41.304348,           2.
    180,          50.,   39.1304359,           2.
    181,          50.,   36.9565201,           2.
    182,          50.,    34.782608,           2.
    183,          50.,    32.608696,           2.
    184,          50.,    30.434782,           2.
    185,          50.,     28.26087,           2.
    186,          50.,    26.086956,           2.
    187,          50.,    23.913044,           2.
    188,          50.,     21.73913,           2.
    189,          50.,    19.565218,           2.
    190,          50.,    17.391304,           2.
    191,          50.,    15.217391,           2.
    192,          50.,    13.043478,           2.
    193,          50.,    10.869565,           2.
    194,          50.,   8.69565201,           2.
    195,          50.,   6.52173901,           2.
    196,          50.,     4.347826,           2.
    197,          50.,     2.173913,           2.
    198,   9.91444874,   1.30526197,           2.
    199,   9.65925789,   2.58819056,           2.
    200,   9.23879528,   3.82683444,           2.
    201,   8.66025448,           5.,           2.
    202,   7.93353319,   6.08761406,           2.
    203,   7.07106781,   7.07106781,           2.
    204,   6.08761406,   7.93353319,           2.
    205,           5.,   8.66025448,           2.
    206,   3.82683444,   9.23879528,           2.
    207,   2.58819056,   9.65925789,           2.
    208,   1.30526197,   9.91444874,           2.
    209,           0.,          10.,           1.
    210,   1.30526197,   9.91444874,           0.
    211,   2.58819056,   9.65925789,           0.
    212,   3.82683444,   9.23879528,           0.
    213,           5.,   8.66025448,           0.
    214,   6.08761406,   7.93353319,           0.
    215,   7.07106781,   7.07106781,           0.
    216,   7.93353319,   6.08761406,           0.
    217,   8.66025448,           5.,           0.
    218,   9.23879528,   3.82683444,           0.
    219,   9.65925789,   2.58819056,           0.
    220,   9.91444874,   1.30526197,           0.
    221,          10.,           0.,           1.
    222,   12.1533031,           0.,           0.
    223,   14.3066072,           0.,           0.
    224,   16.4599113,           0.,           0.
    225,   16.4599113,           0.,           2.
    226,   14.3066072,           0.,           2.
    227,   12.1533031,           0.,           2.
    228,           0.,   16.4599113,           0.
    229,           0.,   14.3066072,           0.
    230,           0.,   12.1533031,           0.
    231,           0.,   12.1533031,           2.
    232,           0.,   14.3066072,           2.
    233,           0.,   16.4599113,           2.
    234,           0.,   20.3569241,           1.
    235,           0.,   22.1006355,           1.
    236,           0.,   23.8443451,           1.
    237,           0.,   25.5880547,           1.
    238,           0.,   27.3317661,           1.
    239,           0.,   29.0754757,           1.
    240,           0.,   30.8191872,           1.
    241,           0.,   32.5628967,           1.
    242,           0.,   34.3066063,           1.
    243,           0.,   36.0503159,           1.
    244,           0.,   37.7940292,           1.
    245,           0.,   39.5377388,           1.
    246,           0.,   41.2814484,           1.
    247,           0.,   43.0251579,           1.
    248,           0.,   44.7688675,           1.
    249,           0.,   46.5125809,           1.
    250,           0.,   48.2562904,           1.
    251,   2.42955399,     18.45397,           1.
    252,   4.81746483,    17.978981,           1.
    253,    7.1229291,   17.1963844,           1.
    254,   9.30643082,   16.1196175,           1.
    255,   11.3309689,   14.7668848,           1.
    256,   13.1616554,   13.1614046,           1.
    257,   14.7669067,   11.3309402,           1.
    258,    16.119524,   9.30659199,           1.
    259,    17.196352,   7.12300682,           1.
    260,   17.9789314,   4.81764889,           1.
    261,    18.453968,   2.42956257,           1.
    262,    2.4727354,   19.9657173,           0.
    263,    4.8928194,   19.3862514,           0.
    264,   7.22894335,    18.561594,           0.
    265,   9.47805786,   17.4731636,           0.
    266,   11.7486439,   16.1629219,           0.
    267,   14.4066801,   14.4834518,           0.
    268,   2.19696188,   48.2257118,           0.
    269,   2.21960354,   46.4499092,           0.
    270,   2.24207067,   44.6734734,           0.
    271,   2.26446915,   42.8967896,           0.
    272,   2.28684235,    41.120018,           0.
    273,   2.30920625,   39.3432159,           0.
    274,   2.33156681,   37.5663948,           0.
    275,   2.35392666,   35.7895737,           0.
    276,   2.37628603,   34.0127487,           0.
    277,    2.3986454,   32.2359238,           0.
    278,   2.42100477,   30.4591007,           0.
    279,   2.44336367,   28.6822777,           0.
    280,   2.46572304,   26.9054565,           0.
    281,   2.48706818,   25.1281948,           0.
    282,   2.49936175,   23.3546638,           0.
    283,   2.48726749,    21.611578,           0.
    284,   4.39090729,   48.1848068,           0.
    285,   4.43315697,   46.3670998,           0.
    286,   4.47503471,   44.5482635,           0.
    287,   4.51675797,   42.7289581,           0.
    288,   4.55842113,   40.9094734,           0.
    289,   4.60006237,   39.0899162,           0.
    290,    4.6416955,   37.2703323,           0.
    291,   4.68332577,   35.4507408,           0.
    292,   4.72495556,   33.6311417,           0.
    293,    4.7665844,   31.8115482,           0.
    294,   4.80821323,    29.991951,           0.
    295,   4.84984207,   28.1723557,           0.
    296,   4.89147091,   26.3527584,           0.
    297,   4.93021679,   24.5330391,           0.
    298,   4.94892788,   22.7248955,           0.
    299,   4.92096043,   20.9770088,           0.
    300,   6.57978678,   48.1301193,           0.
    301,   6.63658428,   46.2572403,           0.
    302,   6.69280529,   44.3829498,           0.
    303,   6.74878073,   42.5080414,           0.
    304,   6.80465698,   40.6328812,           0.
    305,   6.86049509,   38.7576256,           0.
    306,   6.91631985,   36.8823242,           0.
    307,   6.97213888,   35.0070152,           0.
    308,   7.02795601,   33.1316986,           0.
    309,   7.08377266,    31.256382,           0.
    310,   7.13958931,   29.3810635,           0.
    311,   7.19540548,   27.5057449,           0.
    312,   7.25122118,   25.6304245,           0.
    313,   7.30184555,   23.7562084,           0.
    314,   7.32097721,     21.90345,           0.
    315,   7.27280664,   20.1373215,           0.
    316,   8.76192856,   48.0622101,           0.
    317,   8.82676506,   46.1225586,           0.
    318,   8.89093018,   44.1820221,           0.
    319,   8.95480156,   42.2410698,           0.
    320,   9.01855087,   40.2999268,           0.
    321,    9.0822506,    38.358696,           0.
    322,    9.1459322,   36.4174271,           0.
    323,   9.20960522,   34.4761467,           0.
    324,   9.27327633,   32.5348625,           0.
    325,   9.33694649,   30.5935745,           0.
    326,   9.40061665,   28.6522865,           0.
    327,   9.46428585,   26.7109985,           0.
    328,   9.52795601,   24.7697086,           0.
    329,   9.58396626,    22.831356,           0.
    330,   9.59708595,   20.9252853,           0.
    331,   9.54584503,   19.1259632,           0.
    332,    10.937542,   47.9924278,           0.
    333,    11.004427,   45.9866066,           0.
    334,   11.0707655,   43.9813843,           0.
    335,   11.1368484,    41.976326,           0.
    336,    11.202817,   39.9712753,           0.
    337,   11.2687378,    37.966217,           0.
    338,   11.3346367,   35.9611435,           0.
    339,   11.4005289,   33.9560661,           0.
    340,   11.4664173,   31.9509888,           0.
    341,   11.5323048,   29.9459038,           0.
    342,   11.5981922,   27.9408226,           0.
    343,   11.6640797,   25.9357376,           0.
    344,   11.7299671,   23.9306564,           0.
    345,   11.7857094,   21.9306793,           0.
    346,   11.8099241,    19.970438,           0.
    347,   11.8025141,   18.0555344,           0.
    348,   13.1093063,   47.9394951,           0.
    349,   13.1745911,    45.883194,           0.
    350,   13.2395554,   43.8285904,           0.
    351,    13.304348,   41.7746201,           0.
    352,   13.3690548,   39.7208672,           0.
    353,   13.4337244,   37.6671867,           0.
    354,   13.4983768,   35.6135254,           0.
    355,   13.5630236,   33.5598717,           0.
    356,   13.6276665,    31.506216,           0.
    357,   13.6923075,   29.4525604,           0.
    358,   13.7569494,   27.3989029,           0.
    359,   13.8215895,   25.3452473,           0.
    360,   13.8862305,   23.2915916,           0.
    361,   13.9457989,   21.2441006,           0.
    362,   14.0025988,   19.1975117,           0.
    363,   14.1318398,   17.0589256,           0.
    364,    16.193718,   11.8375492,           0.
    365,   17.5449314,   9.52126312,           0.
    366,   18.6068878,   7.21783209,           0.
    367,   19.4000549,   4.85440636,           0.
    368,   19.9574871,   2.43782997,           0.
    369,   15.2797413,   47.9088287,           0.
    370,   17.4498215,   47.8926506,           0.
    371,   19.6198311,   47.8836937,           0.
    372,    21.789835,    47.877861,           0.
    373,   23.9598427,   47.8732529,           0.
    374,   26.1298542,   47.8691063,           0.
    375,   28.2998676,   47.8651276,           0.
    376,   30.4698792,   47.8611984,           0.
    377,   32.6398926,   47.8572884,           0.
    378,    34.809906,   47.8533859,           0.
    379,   36.9799194,   47.8494873,           0.
    380,   39.1499329,   47.8455887,           0.
    381,   41.3199463,   47.8416901,           0.
    382,   43.4899597,   47.8377838,           0.
    383,   45.6599731,   47.8338852,           0.
    384,   47.8299866,   47.8299866,           0.
    385,   15.3418789,   45.8213348,           0.
    386,   17.5082703,   45.7875786,           0.
    387,    19.674427,   45.7685585,           0.
    388,   21.8405361,   45.7562485,           0.
    389,   24.0066433,   45.7467346,           0.
    390,   26.1727543,   45.7383041,           0.
    391,   28.3388653,   45.7302818,           0.
    392,   30.5049782,   45.7224045,           0.
    393,   32.6710892,   45.7145844,           0.
    394,    34.837204,   45.7067719,           0.
    395,   37.0033188,   45.6989746,           0.
    396,   39.1694336,   45.6911736,           0.
    397,   41.3355484,   45.6833725,           0.
    398,   43.5016632,   45.6755753,           0.
    399,   45.6677704,   45.6677742,           0.
    400,   47.8338852,   45.6599731,           0.
    401,    15.403862,   43.7355576,           0.
    402,   17.5666542,   43.6837311,           0.
    403,   19.7289982,   43.6541367,           0.
    404,   21.8912315,   43.6350098,           0.
    405,    24.053442,   43.6203842,           0.
    406,   26.2156525,   43.6075745,           0.
    407,   28.3778648,   43.5954704,           0.
    408,   30.5400753,   43.5836296,           0.
    409,   32.7022896,   43.5718803,           0.
    410,    34.864502,   43.5601654,           0.
    411,   37.0267143,   43.5484619,           0.
    412,   39.1889305,   43.5367584,           0.
    413,   41.3511429,   43.5250587,           0.
    414,   43.5133591,   43.5133591,           0.
    415,   45.6755753,   43.5016594,           0.
    416,   47.8377876,   43.4899597,           0.
    417,   15.4657516,   41.6505203,           0.
    418,   17.6249943,   41.5804787,           0.
    419,   19.7835503,   41.5401115,           0.
    420,   21.9419174,   41.5139923,           0.
    421,   24.1002369,   41.4941483,           0.
    422,   26.2585468,    41.476902,           0.
    423,   28.4168606,   41.4606857,           0.
    424,   30.5751724,   41.4448624,           0.
    425,   32.7334862,   41.4291801,           0.
    426,   34.8917999,   41.4135551,           0.
    427,   37.0501137,   41.3979454,           0.
    428,   39.2084274,   41.3823433,           0.
    429,   41.3667412,    41.366745,           0.
    430,   43.5250587,   41.3511467,           0.
    431,   45.6833763,   41.3355484,           0.
    432,   47.8416901,   41.3199463,           0.
    433,   15.5275908,   39.5657806,           0.
    434,   17.6833057,   39.4774933,           0.
    435,   19.8380909,   39.4262772,           0.
    436,   21.9925976,   39.3930893,           0.
    437,   24.1470299,   39.3679733,           0.
    438,    26.301445,   39.3462601,           0.
    439,   28.4558563,   39.3259125,           0.
    440,   30.6102715,   39.3060989,           0.
    441,   32.7646866,   39.2864838,           0.
    442,   34.9190979,   39.2669449,           0.
    443,   37.0735092,   39.2474289,           0.
    444,   39.2279243,   39.2279282,           0.
    445,   41.3823395,   39.2084274,           0.
    446,   43.5367584,   39.1889305,           0.
    447,   45.6911774,   39.1694336,           0.
    448,   47.8455887,   39.1499329,           0.
    449,   15.5894032,   37.4811592,           0.
    450,   17.7416039,   37.3746262,           0.
    451,   19.8926239,   37.3125267,           0.
    452,   22.0432739,   37.2722473,           0.
    453,    24.193821,   37.2418404,           0.
    454,   26.3443413,    37.215641,           0.
    455,    28.494854,   37.1911545,           0.
    456,   30.6453686,   37.1673431,           0.
    457,   32.7958832,   37.1437912,           0.
    458,   34.9463959,   37.1203384,           0.
    459,   37.0969086,     37.09692,           0.
    460,   39.2474213,    37.073513,           0.
    461,   41.3979378,   37.0501137,           0.
    462,   43.5484543,   37.0267181,           0.
    463,   45.6989708,   37.0033188,           0.
    464,   47.8494873,   36.9799194,           0.
    465,   15.6512022,   35.3965759,           0.
    466,   17.7998924,   35.2718048,           0.
    467,   19.9471512,   35.1988182,           0.
    468,   22.0939503,   35.1514359,           0.
    469,    24.240612,   35.1157265,           0.
    470,   26.3872356,   35.0850296,           0.
    471,   28.5338516,   35.0563965,           0.
    472,   30.6804657,   35.0285873,           0.
    473,   32.8270798,   35.0011024,           0.
    474,   34.9736938,    34.973732,           0.
    475,   37.1203079,   34.9464073,           0.
    476,    39.266922,   34.9191017,           0.
    477,   41.4135361,   34.8917999,           0.
    478,    43.560154,    34.864502,           0.
    479,   45.7067719,    34.837204,           0.
    480,   47.8533859,    34.809906,           0.
    481,   15.7129974,   33.3120117,           0.
    482,   17.8581772,   33.1689987,           0.
    483,   20.0016766,   33.0851212,           0.
    484,   22.1446228,   33.0306358,           0.
    485,   24.2873993,   32.9896164,           0.
    486,     26.43013,    32.954422,           0.
    487,   28.5728474,   32.9216461,           0.
    488,   30.7155609,   32.8898392,           0.
    489,   32.8582764,   32.8584137,           0.
    490,   35.0009918,   32.8271294,           0.
    491,   37.1437073,   32.7958984,           0.
    492,   39.2864227,   32.7646904,           0.
    493,   41.4291382,     32.73349,           0.
    494,   43.5718536,   32.7022896,           0.
    495,   45.7145691,   32.6710892,           0.
    496,   47.8572845,   32.6398926,           0.
    497,   15.7747898,   31.2274475,           0.
    498,   17.9164619,   31.0662003,           0.
    499,      20.0562,   30.9714375,           0.
    500,   22.1952934,   30.9098434,           0.
    501,   24.3341885,    30.863512,           0.
    502,   26.4730244,   30.8238182,           0.
    503,   28.6118431,   30.7868938,           0.
    504,    30.750658,    30.751091,           0.
    505,    32.889473,   30.7157211,           0.
    506,   35.0282898,   30.6805229,           0.
    507,   37.1671066,   30.6453876,           0.
    508,   39.3059235,   30.6102772,           0.
    509,   41.4447365,   30.5751762,           0.
    510,   43.5835495,   30.5400753,           0.
    511,   45.7223663,   30.5049782,           0.
    512,   47.8611832,   30.4698792,           0.
    513,   15.8365822,   29.1428833,           0.
    514,   17.9747467,   28.9634018,           0.
    515,   20.1107235,   28.8577538,           0.
    516,   22.2459679,   28.7890491,           0.
    517,   24.3809776,   28.7374077,           0.
    518,   26.5159206,   28.6932163,           0.
    519,   28.6508408,   28.6521454,           0.
    520,   30.7857571,   28.6123371,           0.
    521,   32.9206734,   28.5730305,           0.
    522,   35.0555878,   28.5339165,           0.
    523,   37.1905022,   28.4948769,           0.
    524,   39.3254204,   28.4558659,           0.
    525,   41.4603348,   28.4168625,           0.
    526,   43.5952492,   28.3778629,           0.
    527,   45.7301636,   28.3388634,           0.
    528,   47.8650818,   28.2998657,           0.
    529,   15.8983736,   27.0583172,           0.
    530,   18.0330296,   26.8606052,           0.
    531,    20.165247,   26.7440701,           0.
    532,   22.2966385,   26.6682587,           0.
    533,   24.4277649,   26.6113052,           0.
    534,    26.558815,   26.5626144,           0.
    535,   28.6898384,    26.517395,           0.
    536,   30.8208542,    26.473587,           0.
    537,   32.9518738,   26.4303398,           0.
    538,   35.0828857,   26.3873119,           0.
    539,   37.2139015,   26.3443661,           0.
    540,   39.3449173,   26.3014526,           0.
    541,   41.4759331,   26.2585468,           0.
    542,   43.6069489,   26.2156487,           0.
    543,   45.7379684,   26.1727505,           0.
    544,   47.8689842,   26.1298523,           0.
    545,    15.960165,   24.9737549,           0.
    546,   18.0913124,   24.7578087,           0.
    547,   20.2197704,   24.6303864,           0.
    548,    22.347311,   24.5474663,           0.
    549,   24.4745541,   24.4852028,           0.
    550,   26.6017075,   24.4320126,           0.
    551,   28.7288342,   24.3826447,           0.
    552,   30.8559532,   24.3348389,           0.
    553,   32.9830704,   24.2876511,           0.
    554,   35.1101837,   24.2407074,           0.
    555,   37.2372971,   24.1938553,           0.
    556,   39.3644142,   24.1470375,           0.
    557,   41.4915314,   24.1002331,           0.
    558,   43.6186447,   24.0534344,           0.
    559,   45.7457657,   24.0066357,           0.
    560,   47.8728828,   23.9598389,           0.
    561,   16.0219555,   22.8891926,           0.
    562,   18.1495934,   22.6550121,           0.
    563,    20.274292,   22.5167046,           0.
    564,   22.3979836,   22.4266739,           0.
    565,   24.5213432,   22.3591042,           0.
    566,   26.6445999,   22.3014107,           0.
    567,   28.7678299,   22.2478962,           0.
    568,   30.8910484,   22.1960869,           0.
    569,    33.014267,   22.1449623,           0.
    570,   35.1374817,    22.094101,           0.
    571,   37.2606964,   22.0433426,           0.
    572,   39.3839111,   21.9926224,           0.
    573,   41.5071297,   21.9419193,           0.
    574,   43.6303482,   21.8912201,           0.
    575,   45.7535667,   21.8405228,           0.
    576,   47.8767853,   21.7898254,           0.
    577,   16.0817242,    20.808342,           0.
    578,   18.2071533,   20.5539227,           0.
    579,   20.3285751,   20.4037018,           0.
    580,   22.4485779,   20.3061333,           0.
    581,   24.5681076,   20.2330875,           0.
    582,   26.6874886,   20.1708412,           0.
    583,   28.8068237,   20.1131554,           0.
    584,   30.9261436,   20.0573406,           0.
    585,   33.0454636,   20.0022717,           0.
    586,   35.1647797,   19.9474964,           0.
    587,   37.2840958,   19.8928318,           0.
    588,   39.4034119,   19.8382092,           0.
    589,    41.522728,   19.7836056,           0.
    590,   43.6420479,   19.7290077,           0.
    591,   45.7613678,   19.6744099,           0.
    592,   47.8806839,    19.619812,           0.
    593,   16.1668987,   18.7219925,           0.
    594,   18.3062286,   18.4507065,           0.
    595,   20.4301414,   18.2914696,           0.
    596,    22.546711,   18.1876755,           0.
    597,   24.6602745,   18.1095524,           0.
    598,   26.7727203,   18.0427532,           0.
    599,   28.8847771,   17.9807568,           0.
    600,   30.9967041,    17.920742,           0.
    601,    33.108593,   17.8615227,           0.
    602,   35.2204666,    17.802618,           0.
    603,   37.3323364,   17.7438316,           0.
    604,   39.4442062,   17.6850929,           0.
    605,    41.556076,   17.6263714,           0.
    606,    43.667942,   17.5676556,           0.
    607,    45.779808,   17.5089436,           0.
    608,   47.8916779,   17.4502316,           0.
    609,   16.4097805,   16.5789642,           0.
    610,   18.5909653,   16.3259125,           0.
    611,   20.7187653,   16.1744785,           0.
    612,   22.8234634,   16.0711079,           0.
    613,   24.9191933,   15.9901657,           0.
    614,   27.0116539,   15.9193439,           0.
    615,   29.1029816,   15.8529282,           0.
    616,   31.1939278,    15.788372,           0.
    617,   33.2847443,   15.7245798,           0.
    618,   35.3755264,   15.6610937,           0.
    619,   37.4662933,   15.5977268,           0.
    620,   39.5570564,   15.5344067,           0.
    621,   41.6478157,   15.4711037,           0.
    622,    43.738575,   15.4078064,           0.
    623,   45.8293343,   15.3445091,           0.
    624,   47.9176331,   15.2810526,           0.
    625,   16.9883461,   14.2876129,           0.
    626,   19.1981468,   14.1459494,           0.
    627,   21.3009281,   14.0337353,           0.
    628,   23.3688087,   13.9417038,           0.
    629,   25.4241867,   13.8623409,           0.
    630,    27.475172,   13.7895288,           0.
    631,   29.5246487,   13.7197962,           0.
    632,   31.5736122,   13.6514311,           0.
    633,    33.622406,   13.5836487,           0.
    634,   35.6711464,   13.5161057,           0.
    635,   37.7198677,   13.4486589,           0.
    636,   39.7685814,   13.3812504,           0.
    637,   41.8172874,   13.3138523,           0.
    638,   43.8659706,   13.2464466,           0.
    639,   45.9139099,   13.1789627,           0.
    640,   47.9592667,   13.1112728,           0.
    641,   48.0111275,   10.9397087,           0.
    642,   48.0744171,      8.76264,           0.
    643,   48.1347504,   6.57909775,           0.
    644,   48.1845856,   4.38956785,           0.
    645,   48.2231102,   2.19567275,           0.
    646,   46.0221367,   11.0089855,           0.
    647,   46.1482506,   8.82836914,           0.
    648,   46.2676735,   6.63513565,           0.
    649,   46.3667297,   4.43019438,           0.
    650,   46.4445076,     2.216784,           0.
    651,   44.0322952,   11.0778542,           0.
    652,   44.2214966,   8.89351654,           0.
    653,   44.3996811,   6.69053984,           0.
    654,   44.5477486,   4.47026825,           0.
    655,    44.665123,   2.23756456,           0.
    656,   42.0419846,   11.1465492,           0.
    657,   42.2943878,   8.95841312,           0.
    658,   42.5312576,   6.74565983,           0.
    659,   42.7282715,   4.51008511,           0.
    660,   42.8853874,   2.25818586,           0.
    661,   40.0515213,   11.2151842,           0.
    662,    40.367115,   9.02321053,           0.
    663,   40.6626358,   6.80066109,           0.
    664,    40.908577,   4.54978848,           0.
    665,   41.1054993,   2.27873373,           0.
    666,   38.0610161,    11.283802,           0.
    667,   38.4397812,   9.08796978,           0.
    668,   38.7939339,   6.85561371,           0.
    669,   39.0887985,   4.58944416,           0.
    670,   39.3255539,   2.29924965,           0.
    671,   36.0704918,   11.3524265,           0.
    672,   36.5124207,    9.1527195,           0.
    673,   36.9252014,   6.91054821,           0.
    674,   37.2689819,   4.62908077,           0.
    675,   37.5455742,   2.31975198,           0.
    676,   34.0799561,   11.4210863,           0.
    677,   34.5850525,   9.21747875,           0.
    678,   35.0564537,    6.9654808,           0.
    679,   35.4491463,   4.66871166,           0.
    680,   35.7655869,    2.3402493,           0.
    681,   32.0893974,   11.4898405,           0.
    682,   32.6576767,   9.28227234,           0.
    683,   33.1877022,   7.02042437,           0.
    684,   33.6293068,   4.70834398,           0.
    685,   33.9855957,   2.36074591,           0.
    686,   30.0987682,    11.558836,           0.
    687,   30.7302666,   9.34715843,           0.
    688,   31.3189392,   7.07540083,           0.
    689,   31.8094635,   4.74798679,           0.
    690,   32.2055969,   2.38124561,           0.
    691,    28.107914,    11.628417,           0.
    692,   28.8027687,   9.41227531,           0.
    693,   29.4501419,   7.13046408,           0.
    694,   29.9896088,   4.78766108,           0.
    695,   30.4255962,   2.40175581,           0.
    696,   26.1163483,   11.6993752,           0.
    697,   26.8749733,   9.47795677,           0.
    698,   27.5812302,   7.18574333,           0.
    699,   28.1697102,   4.82741404,           0.
    700,   28.6455841,   2.42229319,           0.
    701,   24.1225262,   11.7734022,           0.
    702,   24.9461861,   9.54493141,           0.
    703,   25.7119217,   7.24153042,           0.
    704,   26.3496647,   4.86735678,           0.
    705,   26.8655167,   2.44289637,           0.
    706,   22.1244354,   11.8501005,           0.
    707,   23.0187664,   9.60758686,           0.
    708,   23.8459148,   7.29001951,           0.
    709,   24.5325031,   4.89986992,           0.
    710,   25.0867672,    2.4575088,           0.
    711,    20.125515,   11.9128332,           0.
    712,   21.1101837,   9.63882828,           0.
    713,   22.0028305,   7.30436802,           0.
    714,    22.733511,   4.90376663,           0.
    715,   23.3209057,   2.45716953,           0.
    716,   18.1391354,    11.925602,           0.
    717,   19.2625237,   9.60353756,           0.
    718,   20.2274895,   7.26232433,           0.
    719,   20.9950123,   4.87197495,           0.
    720,   21.5935097,   2.44174361,           0.
    721,   2.47492576,   19.9747601,           2.
    722,   4.89768553,   19.4024296,           2.
    723,   7.23663664,    18.581768,           2.
    724,   9.48857117,    17.494873,           2.
    725,   11.7588186,   16.1544361,           2.
    726,   14.4105692,   14.4511757,           2.
    727,   2.49526763,     21.63978,           2.
    728,   2.49378753,   23.3709507,           2.
    729,   2.48034072,   25.1301975,           2.
    730,   2.46146941,   26.9005737,           2.
    731,   2.44039702,   28.6751194,           2.
    732,   2.41849303,   30.4511642,           2.
    733,   2.39628768,   32.2277298,           2.
    734,   2.37398124,    34.004467,           2.
    735,   2.35163856,   35.7812614,           2.
    736,   2.32928634,   37.5580788,           2.
    737,    2.3069284,   39.3348999,           2.
    738,   2.28457046,    41.111721,           2.
    739,    2.2622087,    42.888546,           2.
    740,   2.23985076,   44.6653671,           2.
    741,    2.2175138,   46.4423141,           2.
    742,   2.19538093,   48.2200699,           2.
    743,   4.93750143,   21.0254345,           2.
    744,   4.93806601,   22.7572479,           2.
    745,   4.91548109,   24.5405312,           2.
    746,   4.88172293,   26.3459415,           2.
    747,   4.84315252,   28.1602383,           2.
    748,    4.8026576,   29.9779243,           2.
    749,   4.76143408,   31.7968521,           2.
    750,   4.71994543,   33.6162224,           2.
    751,   4.67836142,   35.4357414,           2.
    752,    4.6367507,   37.2553139,           2.
    753,   4.59512854,   39.0749016,           2.
    754,   4.55350065,   40.8944969,           2.
    755,   4.51187086,   42.7140923,           2.
    756,   4.47024298,   44.5336876,           2.
    757,   4.42867613,   46.3535461,           2.
    758,   4.38756704,   48.1748962,           2.
    759,   7.29795218,   20.1968575,           2.
    760,    7.3049674,   21.9493217,           2.
    761,   7.27854681,   23.7712631,           2.
    762,    7.2353301,   25.6247654,           2.
    763,   7.18459082,   27.4915791,           2.
    764,   7.13072538,   29.3637028,           2.
    765,   7.07563353,   31.2378597,           2.
    766,   7.02007818,   33.1127663,           2.
    767,   6.96435118,   34.9879417,           2.
    768,   6.90856695,   36.8632126,           2.
    769,   6.85276175,   38.7385139,           2.
    770,   6.79694891,   40.6138306,           2.
    771,   6.74113226,   42.4891472,           2.
    772,   6.68531752,   44.3644638,           2.
    773,   6.62961149,    46.240139,           2.
    774,   6.57463789,   48.1177216,           2.
    775,   9.57383156,    19.156374,           2.
    776,   9.58550072,   20.9697285,           2.
    777,   9.55676842,   22.8549423,           2.
    778,   9.50834846,   24.7725449,           2.
    779,   9.45101547,   26.7041759,           2.
    780,   9.38987541,    28.641655,           2.
    781,   9.32718086,   30.5814877,           2.
    782,   9.26387596,   32.5222321,           2.
    783,   9.20033836,   34.4633255,           2.
    784,   9.13671684,   36.4045448,           2.
    785,    9.0730629,   38.3458099,           2.
    786,   9.00940132,   40.2870903,           2.
    787,   8.94573402,   42.2283745,           2.
    788,   8.88206482,   44.1696625,           2.
    789,   8.81855583,    46.111351,           2.
    790,   8.75605774,   48.0551453,           2.
    791,   11.8247814,    18.021471,           2.
    792,   11.8097477,   19.9760437,           2.
    793,   11.7676811,   21.9557648,           2.
    794,   11.7131777,   23.9477444,           2.
    795,   11.6525078,   25.9464645,           2.
    796,   11.5888939,   27.9486637,           2.
    797,   11.5239515,   29.9525127,           2.
    798,   11.4584417,   31.9570942,           2.
    799,   11.3926992,   33.9619789,           2.
    800,   11.3268671,   35.9669876,           2.
    801,   11.2609997,   37.9720459,           2.
    802,   11.1951208,   39.9771194,           2.
    803,   11.1292372,   41.9822006,           2.
    804,   11.0633507,   43.9872818,           2.
    805,   10.9976788,   45.9927788,           2.
    806,   10.9328241,   47.9976349,           2.
    807,   14.1440582,   16.9971828,           2.
    808,   14.0147305,   19.1747494,           2.
    809,   13.9405794,   21.2552242,           2.
    810,   13.8771315,   23.3122272,           2.
    811,   13.8144751,   25.3648682,           2.
    812,   13.7510662,   27.4173946,           2.
    813,   13.6870346,   29.4703884,           2.
    814,   13.6226664,   31.5237255,           2.
    815,   13.5581388,     33.57724,           2.
    816,   13.4935427,   35.6308403,           2.
    817,   13.4289188,   37.6844711,           2.
    818,   13.3642845,    39.738121,           2.
    819,   13.2996483,   41.7917747,           2.
    820,    13.235014,   43.8454323,           2.
    821,   13.1705265,   45.8987389,           2.
    822,   13.1065397,   47.9507027,           2.
    823,   19.9747601,   2.47492576,           2.
    824,   19.4024296,   4.89768553,           2.
    825,   18.5829487,    7.2395072,           2.
    826,   17.5092278,   9.50575638,           2.
    827,   16.1807098,   11.7999477,           2.
    828,   15.2787571,   47.9138489,           2.
    829,   17.4494801,   47.8947334,           2.
    830,   19.6197147,   47.8845024,           2.
    831,   21.7897968,   47.8781548,           2.
    832,   23.9598312,   47.8733559,           2.
    833,   26.1298504,   47.8691444,           2.
    834,   28.2998657,   47.8651352,           2.
    835,   30.4698792,   47.8611984,           2.
    836,   32.6398926,   47.8572884,           2.
    837,    34.809906,   47.8533859,           2.
    838,   36.9799194,   47.8494835,           2.
    839,   39.1499329,   47.8455849,           2.
    840,   41.3199463,   47.8416862,           2.
    841,   43.4899597,   47.8377876,           2.
    842,   45.6599693,   47.8338852,           2.
    843,   47.8299828,   47.8299866,           2.
    844,   15.3402481,   45.8291931,           2.
    845,   17.5076466,   45.7911415,           2.
    846,   19.6741962,   45.7700577,           2.
    847,   21.8404541,   45.7568436,           2.
    848,   24.0066147,   45.7469559,           2.
    849,   26.1727428,   45.7383842,           2.
    850,   28.3388615,   45.7303123,           2.
    851,   30.5049763,   45.7224159,           2.
    852,   32.6710892,   45.7145844,           2.
    853,    34.837204,   45.7067757,           2.
    854,   37.0033188,   45.6989708,           2.
    855,   39.1694298,   45.6911697,           2.
    856,   41.3355446,   45.6833687,           2.
    857,   43.5016556,   45.6755714,           2.
    858,   45.6677704,   45.6677742,           2.
    859,   47.8338852,   45.6599731,           2.
    860,   15.4019136,   43.7446556,           2.
    861,   17.5658627,   43.6881027,           2.
    862,   19.7286892,   43.6560783,           2.
    863,   21.8911133,   43.6358185,           2.
    864,   24.0533981,   43.6207047,           2.
    865,   26.2156353,   43.6076965,           2.
    866,   28.3778572,   43.5955162,           2.
    867,   30.5400734,   43.5836449,           2.
    868,   32.7022896,   43.5718842,           2.
    869,    34.864502,   43.5601654,           2.
    870,   37.0267143,   43.5484581,           2.
    871,   39.1889305,   43.5367546,           2.
    872,   41.3511429,   43.5250549,           2.
    873,   43.5133553,   43.5133553,           2.
    874,   45.6755714,   43.5016594,           2.
    875,   47.8377838,   43.4899597,           2.
    876,   15.4636679,   41.6600914,           2.
    877,    17.624115,    41.585228,           2.
    878,   19.7831955,   41.5422821,           2.
    879,   21.9417782,   41.5149269,           2.
    880,   24.1001835,   41.4945297,           2.
    881,   26.2585278,   41.4770546,           2.
    882,    28.416853,    41.460743,           2.
    883,   30.5751705,   41.4448814,           2.
    884,   32.7334862,   41.4291878,           2.
    885,   34.8917999,   41.4135551,           2.
    886,   37.0501137,   41.3979454,           2.
    887,   39.2084274,   41.3823433,           2.
    888,   41.3667412,   41.3667412,           2.
    889,   43.5250549,   41.3511429,           2.
    890,   45.6833687,   41.3355446,           2.
    891,   47.8416862,   41.3199463,           2.
    892,   15.5254478,   39.5755234,           2.
    893,   17.6823883,   39.4824028,           2.
    894,   19.8377113,   39.4285583,           2.
    895,    21.992445,   39.3940964,           2.
    896,   24.1469707,   39.3683968,           2.
    897,   26.3014221,   39.3464317,           2.
    898,   28.4558487,   39.3259811,           2.
    899,   30.6102676,   39.3061256,           2.
    900,   32.7646828,   39.2864952,           2.
    901,   34.9190979,   39.2669487,           2.
    902,    37.073513,   39.2474327,           2.
    903,   39.2279282,   39.2279282,           2.
    904,   41.3823395,   39.2084274,           2.
    905,   43.5367546,   39.1889305,           2.
    906,   45.6911697,   39.1694298,           2.
    907,   47.8455849,   39.1499329,           2.
    908,   15.5872326,    37.490963,           2.
    909,   17.7406654,   37.3796005,           2.
    910,    19.892231,   37.3148613,           2.
    911,   22.0431156,   37.2732887,           2.
    912,    24.193758,   37.2422829,           2.
    913,   26.3443146,   37.2158203,           2.
    914,   28.4948444,   37.1912231,           2.
    915,   30.6453648,   37.1673698,           2.
    916,   32.7958794,   37.1438026,           2.
    917,   34.9463959,   37.1203423,           2.
    918,   37.0969124,   37.0969238,           2.
    919,   39.2474251,   37.0735168,           2.
    920,   41.3979416,   37.0501175,           2.
    921,   43.5484543,   37.0267181,           2.
    922,   45.6989708,    37.003315,           2.
    923,   47.8494835,   36.9799194,           2.
    924,   15.6490164,   35.4064064,           2.
    925,   17.7989445,   35.2768021,           2.
    926,   19.9467545,   35.2011757,           2.
    927,   22.0937862,   35.1524925,           2.
    928,   24.2405453,   35.1161766,           2.
    929,   26.3872089,   35.0852165,           2.
    930,   28.5338402,   35.0564728,           2.
    931,   30.6804619,   35.0286179,           2.
    932,    32.827076,   35.0011101,           2.
    933,   34.9736938,   34.9737358,           2.
    934,   37.1203079,   34.9464111,           2.
    935,    39.266922,   34.9191017,           2.
    936,   41.4135399,   34.8918037,           2.
    937,    43.560154,    34.864502,           2.
    938,    45.706768,    34.837204,           2.
    939,   47.8533821,    34.809906,           2.
    940,   15.7107887,   33.3218651,           2.
    941,   17.8572216,    33.174015,           2.
    942,   20.0012741,   33.0874939,           2.
    943,   22.1444588,   33.0317001,           2.
    944,   24.2873344,   32.9900742,           2.
    945,   26.4301033,   32.9546127,           2.
    946,   28.5728359,   32.9217224,           2.
    947,   30.7155571,   32.8898697,           2.
    948,   32.8582764,   32.8584213,           2.
    949,   35.0009918,   32.8271332,           2.
    950,   37.1437073,   32.7958984,           2.
    951,   39.2864227,   32.7646904,           2.
    952,   41.4291382,     32.73349,           2.
    953,   43.5718536,   32.7022896,           2.
    954,   45.7145653,   32.6710892,           2.
    955,   47.8572807,   32.6398926,           2.
    956,   15.7725334,     31.23736,           2.
    957,   17.9154854,   31.0712376,           2.
    958,   20.0557919,   30.9738178,           2.
    959,   22.1951275,   30.9109097,           2.
    960,   24.3341217,   30.8639717,           2.
    961,   26.4729977,   30.8240108,           2.
    962,   28.6118336,    30.786974,           2.
    963,   30.7506542,   30.7511196,           2.
    964,    32.889473,   30.7157326,           2.
    965,   35.0282898,   30.6805267,           2.
    966,   37.1671066,   30.6453896,           2.
    967,   39.3059196,   30.6102772,           2.
    968,   41.4447365,   30.5751743,           2.
    969,   43.5835495,   30.5400753,           2.
    970,   45.7223663,   30.5049782,           2.
    971,   47.8611832,   30.4698792,           2.
    972,   15.8342094,   29.1529274,           2.
    973,   17.9737244,   28.9684906,           2.
    974,   20.1102982,   28.8601532,           2.
    975,   22.2457943,   28.7901249,           2.
    976,    24.380909,   28.7378731,           2.
    977,    26.515892,   28.6934109,           2.
    978,   28.6508293,   28.6522236,           2.
    979,   30.7857533,   28.6123695,           2.
    980,   32.9206696,   28.5730438,           2.
    981,   35.0555878,   28.5339222,           2.
    982,   37.1905022,   28.4948788,           2.
    983,   39.3254204,    28.455864,           2.
    984,   41.4603348,   28.4168606,           2.
    985,   43.5952492,    28.377861,           2.
    986,   45.7301674,   28.3388634,           2.
    987,   47.8650818,   28.2998657,           2.
    988,     15.89573,   27.0686359,           2.
    989,   18.0318966,   26.8658009,           2.
    990,   20.1647797,   26.7465096,           2.
    991,   22.2964516,   26.6693478,           2.
    992,   24.4276924,   26.6117764,           2.
    993,   26.5587845,   26.5628109,           2.
    994,   28.6898251,   26.5174751,           2.
    995,   30.8208504,   26.4736195,           2.
    996,     32.95187,   26.4303532,           2.
    997,   35.0828857,   26.3873158,           2.
    998,   37.2139015,    26.344368,           2.
    999,   39.3449173,   26.3014507,           2.
   1000,   41.4759331,   26.2585468,           2.
   1001,   43.6069489,   26.2156487,           2.
   1002,   45.7379646,   26.1727505,           2.
   1003,   47.8689842,   26.1298542,           2.
   1004,   15.9569473,   24.9845276,           2.
   1005,   18.0899391,   24.7631779,           2.
   1006,   20.2192097,   24.6328926,           2.
   1007,   22.3470879,   24.5485821,           2.
   1008,   24.4744682,   24.4856834,           2.
   1009,   26.6016731,   24.4322128,           2.
   1010,   28.7288208,   24.3827267,           2.
   1011,   30.8559456,   24.3348713,           2.
   1012,   32.9830666,   24.2876644,           2.
   1013,   35.1101837,   24.2407112,           2.
   1014,   37.2373009,   24.1938553,           2.
   1015,    39.364418,   24.1470375,           2.
   1016,   41.4915314,   24.1002331,           2.
   1017,   43.6186485,   24.0534344,           2.
   1018,   45.7457657,   24.0066376,           2.
   1019,   47.8728828,   23.9598408,           2.
   1020,   16.0177555,   22.9002037,           2.
   1021,   18.1477909,   22.6604366,           2.
   1022,   20.2735558,   22.5192242,           2.
   1023,   22.3976936,   22.4277954,           2.
   1024,   24.5212326,   22.3595848,           2.
   1025,   26.6445599,   22.3016129,           2.
   1026,   28.7678127,   22.2479782,           2.
   1027,   30.8910427,   22.1961212,           2.
   1028,   33.0142632,   22.1449738,           2.
   1029,   35.1374817,   22.0941067,           2.
   1030,   37.2607002,   22.0433445,           2.
   1031,   39.3839149,   21.9926243,           2.
   1032,   41.5071335,   21.9419193,           2.
   1033,   43.6303482,   21.8912201,           2.
   1034,   45.7535667,   21.8405228,           2.
   1035,   47.8767815,   21.7898273,           2.
   1036,   16.0788765,   20.8129082,           2.
   1037,   18.2057343,   20.5562496,           2.
   1038,   20.3279228,   20.4049568,           2.
   1039,   22.4482975,   20.3067837,           2.
   1040,   24.5679932,   20.2334042,           2.
   1041,   26.6874428,   20.1709862,           2.
   1042,   28.8068047,   20.1132202,           2.
   1043,   30.9261379,   20.0573692,           2.
   1044,   33.0454597,   20.0022831,           2.
   1045,   35.1647797,   19.9475002,           2.
   1046,   37.2840958,   19.8928337,           2.
   1047,   39.4034119,   19.8382111,           2.
   1048,   41.5227318,   19.7836056,           2.
   1049,   43.6420479,   19.7290077,           2.
   1050,    45.761364,   19.6744099,           2.
   1051,   47.8806801,   19.6198139,           2.
   1052,   16.1697369,    18.710907,           2.
   1053,   18.3066387,    18.446516,           2.
   1054,   20.4300594,   18.2901535,           2.
   1055,   22.5466003,   18.1873531,           2.
   1056,   24.6602097,   18.1095161,           2.
   1057,   26.7726898,   18.0427723,           2.
   1058,   28.8847637,   17.9807796,           2.
   1059,   30.9967003,   17.9207554,           2.
   1060,   33.1085892,   17.8615303,           2.
   1061,   35.2204666,   17.8026199,           2.
   1062,   37.3323364,   17.7438335,           2.
   1063,   39.4442062,   17.6850929,           2.
   1064,   41.5560722,   17.6263714,           2.
   1065,    43.667942,   17.5676575,           2.
   1066,   45.7798119,   17.5089436,           2.
   1067,   47.8916779,   17.4502316,           2.
   1068,   16.4129505,   16.5525265,           2.
   1069,   18.5903034,   16.3128948,           2.
   1070,   20.7162476,   16.1677208,           2.
   1071,   22.8202801,   16.0671616,           2.
   1072,   24.9159222,   15.9874144,           2.
   1073,   27.0085411,   15.9171124,           2.
   1074,   29.1001129,   15.8509655,           2.
   1075,   31.1913319,   15.7865925,           2.
   1076,   33.2824364,   15.7229567,           2.
   1077,   35.3735008,   15.6596203,           2.
   1078,   37.4645576,   15.5964012,           2.
   1079,   39.5556107,   15.5332298,           2.
   1080,   41.6466599,   15.4700756,           2.
   1081,    43.737709,    15.406929,           2.
   1082,   45.8287582,   15.3437853,           2.
   1083,   47.9173698,   15.2804928,           2.
   1084,   16.9787693,   14.2567997,           2.
   1085,   19.1840401,   14.1183519,           2.
   1086,   21.2832966,    14.012598,           2.
   1087,   23.3495293,   13.9257288,           2.
   1088,   25.4051056,   13.8491783,           2.
   1089,   27.4572048,   13.7779293,           2.
   1090,   29.5081711,   13.7092552,           2.
   1091,   31.5587769,   13.6417761,           2.
   1092,   33.6092682,   13.5748262,           2.
   1093,   35.6597214,   13.5081053,           2.
   1094,   37.7101669,   13.4414797,           2.
   1095,   39.7606087,   13.3748922,           2.
   1096,   41.8110504,     13.30832,           2.
   1097,   43.8614922,   13.2417536,           2.
   1098,   45.9112663,   13.1751499,           2.
   1099,    47.958271,   13.1088238,           2.
   1100,     21.63978,   2.49526763,           2.
   1101,   23.3709507,   2.49378753,           2.
   1102,   25.1301975,   2.48034072,           2.
   1103,   26.9005737,   2.46146941,           2.
   1104,   28.6751194,   2.44039702,           2.
   1105,   30.4511642,   2.41849303,           2.
   1106,   32.2277298,   2.39628768,           2.
   1107,    34.004467,   2.37398124,           2.
   1108,   35.7812614,   2.35163856,           2.
   1109,   37.5580788,   2.32928634,           2.
   1110,   39.3348999,    2.3069284,           2.
   1111,    41.111721,   2.28457046,           2.
   1112,    42.888546,    2.2622087,           2.
   1113,   44.6653671,   2.23985076,           2.
   1114,   46.4423141,    2.2175138,           2.
   1115,   48.2200699,   2.19538093,           2.
   1116,   21.0254345,   4.93750143,           2.
   1117,   22.7572479,   4.93806601,           2.
   1118,   24.5405312,   4.91548109,           2.
   1119,   26.3459415,   4.88172293,           2.
   1120,   28.1602383,   4.84315252,           2.
   1121,   29.9779243,    4.8026576,           2.
   1122,   31.7968521,   4.76143408,           2.
   1123,   33.6162224,   4.71994543,           2.
   1124,   35.4357414,   4.67836142,           2.
   1125,   37.2553139,    4.6367507,           2.
   1126,   39.0749016,   4.59512854,           2.
   1127,   40.8944969,   4.55350065,           2.
   1128,   42.7140923,   4.51187086,           2.
   1129,   44.5336876,   4.47024298,           2.
   1130,   46.3535461,   4.42867613,           2.
   1131,   48.1748962,   4.38756704,           2.
   1132,   20.2040291,   7.30174208,           2.
   1133,   21.9616661,    7.3082099,           2.
   1134,   23.7862301,   7.28092718,           2.
   1135,   25.6404152,   7.23703718,           2.
   1136,   27.5068493,   7.18587065,           2.
   1137,   29.3781109,   7.13175726,           2.
   1138,   31.2512016,     7.076509,           2.
   1139,   33.1249695,   7.02084494,           2.
   1140,   34.9989738,    6.9650321,           2.
   1141,   36.8730698,   6.90916967,           2.
   1142,   38.7471886,   6.85329008,           2.
   1143,   40.6213226,   6.79740477,           2.
   1144,   42.4954567,   6.74151754,           2.
   1145,   44.3695908,   6.68562841,           2.
   1146,   46.2440834,   6.62985182,           2.
   1147,   48.1204834,   6.57480764,           2.
   1148,   19.1951599,   9.59517288,           2.
   1149,   21.0260525,   9.60301781,           2.
   1150,   22.9192505,   9.56911278,           2.
   1151,   24.8381977,    9.5167675,           2.
   1152,   26.7675819,   9.45700264,           2.
   1153,   28.7011242,   9.39445305,           2.
   1154,   30.6362915,    9.3309269,           2.
   1155,   32.5720863,    9.2670784,           2.
   1156,   34.5081139,   9.20313263,           2.
   1157,   36.4442253,   9.13915825,           2.
   1158,   38.3803711,   9.07517815,           2.
   1159,   40.3165283,   9.01119614,           2.
   1160,   42.2526894,   8.94721413,           2.
   1161,   44.1888542,   8.88323021,           2.
   1162,   46.1254158,   8.81941032,           2.
   1163,   48.0625877,   8.75650978,           2.
   1164,   18.0925522,   11.8852224,           2.
   1165,   20.0782814,   11.8594112,           2.
   1166,   22.0723629,   11.8012047,           2.
   1167,   24.0669556,     11.73452,           2.
   1168,   26.0617275,   11.6664143,           2.
   1169,   28.0567589,   11.5986366,           2.
   1170,       30.052,   11.5313835,           2.
   1171,   32.0473709,   11.4645004,           2.
   1172,   34.0428047,    11.397831,           2.
   1173,    36.038269,   11.3312693,           2.
   1174,   38.0337486,   11.2647591,           2.
   1175,   40.0292358,   11.1982708,           2.
   1176,   42.0247192,    11.131793,           2.
   1177,   44.0202103,   11.0653181,           2.
   1178,   46.0153351,   10.9990129,           2.
   1179,   48.0090485,   10.9334784,           2.
   1180,     2.173913,          50.,           1.
   1181,     4.347826,          50.,           1.
   1182,   6.52173901,          50.,           1.
   1183,   8.69565201,          50.,           1.
   1184,    10.869565,          50.,           1.
   1185,    13.043478,          50.,           1.
   1186,    15.217391,          50.,           1.
   1187,    17.391304,          50.,           1.
   1188,    19.565218,          50.,           1.
   1189,     21.73913,          50.,           1.
   1190,    23.913044,          50.,           1.
   1191,    26.086956,          50.,           1.
   1192,     28.26087,          50.,           1.
   1193,    30.434782,          50.,           1.
   1194,    32.608696,          50.,           1.
   1195,    34.782608,          50.,           1.
   1196,   36.9565201,          50.,           1.
   1197,   39.1304359,          50.,           1.
   1198,    41.304348,          50.,           1.
   1199,     43.47826,          50.,           1.
   1200,   45.6521721,          50.,           1.
   1201,    47.826088,          50.,           1.
   1202,   20.3569241,           0.,           1.
   1203,   48.2562904,           0.,           1.
   1204,   46.5125809,           0.,           1.
   1205,   44.7688675,           0.,           1.
   1206,   43.0251579,           0.,           1.
   1207,   41.2814484,           0.,           1.
   1208,   39.5377388,           0.,           1.
   1209,   37.7940292,           0.,           1.
   1210,   36.0503159,           0.,           1.
   1211,   34.3066063,           0.,           1.
   1212,   32.5628967,           0.,           1.
   1213,   30.8191872,           0.,           1.
   1214,   29.0754757,           0.,           1.
   1215,   27.3317661,           0.,           1.
   1216,   25.5880547,           0.,           1.
   1217,   23.8443451,           0.,           1.
   1218,   22.1006355,           0.,           1.
   1219,          50.,    47.826088,           1.
   1220,          50.,   45.6521721,           1.
   1221,          50.,     43.47826,           1.
   1222,          50.,    41.304348,           1.
   1223,          50.,   39.1304359,           1.
   1224,          50.,   36.9565201,           1.
   1225,          50.,    34.782608,           1.
   1226,          50.,    32.608696,           1.
   1227,          50.,    30.434782,           1.
   1228,          50.,     28.26087,           1.
   1229,          50.,    26.086956,           1.
   1230,          50.,    23.913044,           1.
   1231,          50.,     21.73913,           1.
   1232,          50.,    19.565218,           1.
   1233,          50.,    17.391304,           1.
   1234,          50.,    15.217391,           1.
   1235,          50.,    13.043478,           1.
   1236,          50.,    10.869565,           1.
   1237,          50.,   8.69565201,           1.
   1238,          50.,   6.52173901,           1.
   1239,          50.,     4.347826,           1.
   1240,          50.,     2.173913,           1.
   1241,   9.91444874,   1.30526197,           1.
   1242,   9.65925789,   2.58819056,           1.
   1243,   9.23879528,   3.82683444,           1.
   1244,   8.66025448,           5.,           1.
   1245,   7.93353319,   6.08761406,           1.
   1246,   7.07106781,   7.07106781,           1.
   1247,   6.08761406,   7.93353319,           1.
   1248,           5.,   8.66025448,           1.
   1249,   3.82683444,   9.23879528,           1.
   1250,   2.58819056,   9.65925789,           1.
   1251,   1.30526197,   9.91444874,           1.
   1252,   12.1533031,           0.,           1.
   1253,   14.3066072,           0.,           1.
   1254,   16.4599113,           0.,           1.
   1255,           0.,   12.1533031,           1.
   1256,           0.,   14.3066072,           1.
   1257,           0.,   16.4599113,           1.
   1258,   12.0493307,   1.58632445,           2.
   1259,   11.7391901,   3.14550638,           2.
   1260,   11.2281885,   4.65086794,           2.
   1261,   10.5250692,   6.07665157,           2.
   1262,   9.64186382,    7.3984623,           2.
   1263,   8.59368324,   8.59368324,           2.
   1264,    7.3984623,   9.64186382,           2.
   1265,   6.07665157,   10.5250692,           2.
   1266,   4.65086794,   11.2281885,           2.
   1267,   3.14550638,   11.7391901,           2.
   1268,   1.58632445,   12.0493307,           2.
   1269,   14.1842117,   1.86738694,           2.
   1270,   13.8191214,   3.70282245,           2.
   1271,   13.2175817,   5.47490168,           2.
   1272,   12.3898849,   7.15330362,           2.
   1273,    11.350194,   8.70931053,           2.
   1274,   10.1162987,   10.1162987,           2.
   1275,   8.70931053,    11.350194,           2.
   1276,   7.15330362,   12.3898849,           2.
   1277,   5.47490168,   13.2175817,           2.
   1278,   3.70282245,   13.8191214,           2.
   1279,   1.86738694,   14.1842117,           2.
   1280,   16.3190937,   2.14844942,           2.
   1281,   15.8990526,   4.26013851,           2.
   1282,    15.206974,   6.29893494,           2.
   1283,   14.2547007,   8.22995567,           2.
   1284,   13.0585251,   10.0201588,           2.
   1285,   11.6389141,   11.6389141,           2.
   1286,   10.0201588,   13.0585251,           2.
   1287,   8.22995567,   14.2547007,           2.
   1288,   6.29893494,    15.206974,           2.
   1289,   4.26013851,   15.8990526,           2.
   1290,   2.14844942,   16.3190937,           2.
   1291,   12.0493307,   1.58632445,           0.
   1292,   11.7391901,   3.14550638,           0.
   1293,   11.2281885,   4.65086794,           0.
   1294,   10.5250692,   6.07665157,           0.
   1295,   9.64186382,    7.3984623,           0.
   1296,   8.59368324,   8.59368324,           0.
   1297,    7.3984623,   9.64186382,           0.
   1298,   6.07665157,   10.5250692,           0.
   1299,   4.65086794,   11.2281885,           0.
   1300,   3.14550638,   11.7391901,           0.
   1301,   1.58632445,   12.0493307,           0.
   1302,   14.1842117,   1.86738694,           0.
   1303,   13.8191214,   3.70282245,           0.
   1304,   13.2175817,   5.47490168,           0.
   1305,   12.3898849,   7.15330362,           0.
   1306,    11.350194,   8.70931053,           0.
   1307,   10.1162987,   10.1162987,           0.
   1308,   8.70931053,    11.350194,           0.
   1309,   7.15330362,   12.3898849,           0.
   1310,   5.47490168,   13.2175817,           0.
   1311,   3.70282245,   13.8191214,           0.
   1312,   1.86738694,   14.1842117,           0.
   1313,   16.3190937,   2.14844942,           0.
   1314,   15.8990526,   4.26013851,           0.
   1315,    15.206974,   6.29893494,           0.
   1316,   14.2547007,   8.22995567,           0.
   1317,   13.0585251,   10.0201588,           0.
   1318,   11.6389141,   11.6389141,           0.
   1319,   10.0201588,   13.0585251,           0.
   1320,   8.22995567,   14.2547007,           0.
   1321,   6.29893494,    15.206974,           0.
   1322,   4.26013851,   15.8990526,           0.
   1323,   2.14844942,   16.3190937,           0.
   1324,   14.4516315,   14.4756536,           1.
   1325,   11.7732325,   16.1880913,           1.
   1326,   9.47712803,   17.5048161,           1.
   1327,   7.20825529,   18.5733757,           1.
   1328,    4.8690505,   19.3892841,           1.
   1329,    2.4565208,    19.963377,           1.
   1330,    14.176095,    17.054472,           1.
   1331,   14.0254278,   19.2340603,           1.
   1332,   13.9433661,   21.3064289,           1.
   1333,   13.8787527,   23.3577023,           1.
   1334,   13.8153801,   25.4065685,           1.
   1335,   13.7516222,   27.4554272,           1.
   1336,    13.687501,   29.5045624,           1.
   1337,   13.6231813,   31.5538998,           1.
   1338,   13.5587645,    33.603344,           1.
   1339,   13.4943047,    35.652832,           1.
   1340,   13.4298258,   37.7023506,           1.
   1341,   13.3653326,   39.7518883,           1.
   1342,   13.3008204,   41.8014641,           1.
   1343,   13.2362833,   43.8511238,           1.
   1344,   13.1717415,   45.9007454,           1.
   1345,   13.1074362,   47.9503174,           1.
   1346,   19.9573994,   2.44864249,           1.
   1347,   19.3874626,   4.85893106,           1.
   1348,   18.5859432,   7.20498323,           1.
   1349,   17.5337219,    9.4917078,           1.
   1350,   16.2102451,   11.8073168,           1.
   1351,   47.9573669,   13.1100321,           1.
   1352,   45.9137115,    13.176549,           1.
   1353,   43.8685036,   13.2430496,           1.
   1354,   41.8227043,   13.3095245,           1.
   1355,   39.7767754,   13.3759947,           1.
   1356,   37.7308159,   13.4424744,           1.
   1357,    35.684845,   13.5089912,           1.
   1358,   33.6388588,   13.5756073,           1.
   1359,   31.5928288,   13.6424599,           1.
   1360,   29.5466709,   13.7098742,           1.
   1361,   27.5001068,    13.778573,           1.
   1362,   25.4523411,   13.8500948,           1.
   1363,   23.4010677,   13.9274874,           1.
   1364,   21.3406658,   14.0169668,           1.
   1365,   19.2484264,   14.1260347,           1.
   1366,   17.0432911,   14.2696295,           1.
   1367,   2.47802782,   21.6182404,           1.
   1368,   2.48251081,    23.346426,           1.
   1369,   2.47235942,   25.1073017,           1.
   1370,   2.45465732,   26.8799992,           1.
   1371,   2.43421578,   28.6565609,           1.
   1372,   2.41288161,   30.4344501,           1.
   1373,   2.39124966,   32.2127991,           1.
   1374,   2.36951756,   33.9913063,           1.
   1375,   2.34775114,   35.7698669,           1.
   1376,   2.32597303,   37.5484505,           1.
   1377,    2.3041904,    39.327034,           1.
   1378,   2.28240466,   41.1056175,           1.
   1379,   2.26061344,   42.8841858,           1.
   1380,   2.23881316,   44.6627197,           1.
   1381,   2.21701169,   46.4412842,           1.
   1382,   2.19531655,   48.2202339,           1.
   1383,   4.90728712,   20.9925327,           1.
   1384,   4.91799212,   22.7182999,           1.
   1385,   4.90148306,   24.5043583,           1.
   1386,   4.86972475,   26.3141308,           1.
   1387,   4.83213425,     28.13204,           1.
   1388,   4.79260063,   29.9528103,           1.
   1389,   4.75239992,   31.7746029,           1.
   1390,   4.71196747,   33.5967522,           1.
   1391,   4.67145348,   35.4190369,           1.
   1392,   4.63091087,   37.2413597,           1.
   1393,    4.5903573,   39.0636978,           1.
   1394,   4.54979563,   40.8860283,           1.
   1395,   4.50922203,   42.7083244,           1.
   1396,    4.4686265,   44.5305634,           1.
   1397,   4.42803717,   46.3528709,           1.
   1398,   4.38766813,    48.175827,           1.
   1399,   7.26284266,    20.168539,           1.
   1400,   7.28108549,    21.915863,           1.
   1401,   7.26198149,   23.7421265,           1.
   1402,   7.22084951,   25.6013317,           1.
   1403,    7.1709938,    27.472229,           1.
   1404,   7.11819601,   29.3472958,           1.
   1405,   7.06436777,   31.2238789,           1.
   1406,   7.01016855,   33.1010246,           1.
   1407,   6.95583582,   34.9783669,           1.
   1408,   6.90145493,   36.8557854,           1.
   1409,     6.847054,   38.7332191,           1.
   1410,   6.79263926,   40.6106453,           1.
   1411,   6.73820543,   42.4880333,           1.
   1412,    6.6837368,    44.365345,           1.
   1413,    6.6292882,   46.2427711,           1.
   1414,   6.57517004,   48.1209526,           1.
   1415,   9.54868793,   19.1667461,           1.
   1416,   9.56581879,   20.9780827,           1.
   1417,    9.5431776,   22.8659763,           1.
   1418,   9.49604511,   24.7872562,           1.
   1419,   9.43899345,   26.7205715,           1.
   1420,   9.37860584,   28.6581936,           1.
   1421,   9.31702328,   30.5974331,           1.
   1422,   9.25499439,   32.5372963,           1.
   1423,   9.19279861,   34.4773941,           1.
   1424,   9.13053799,   36.4175835,           1.
   1425,   9.06825161,   38.3577919,           1.
   1426,   9.00594711,   40.2980042,           1.
   1427,   8.94361782,   42.2381859,           1.
   1428,   8.88124752,   44.1783257,           1.
   1429,   8.81892014,   46.1186523,           1.
   1430,   8.75700092,   48.0593452,           1.
   1431,    11.823554,   18.0842457,           1.
   1432,   11.8013945,   20.0397091,           1.
   1433,   11.7599688,   22.0142002,           1.
   1434,   11.7057104,   24.0036221,           1.
   1435,   11.6447649,    25.999506,           1.
   1436,   11.5814486,   27.9979324,           1.
   1437,   11.5172005,   29.9974442,           1.
   1438,    11.452569,   31.9974213,           1.
   1439,   11.3877831,   33.9976006,           1.
   1440,   11.3229332,     35.99786,           1.
   1441,   11.2580538,   37.9981461,           1.
   1442,   11.1931581,   39.9984436,           1.
   1443,   11.1282349,   41.9987488,           1.
   1444,   11.0632753,   43.9990845,           1.
   1445,   10.9983864,   45.9994965,           1.
   1446,   10.9337921,   47.9998665,           1.
   1447,    15.279026,   47.9155273,           1.
   1448,   17.4495544,    47.896244,           1.
   1449,   19.6197338,   47.8854256,           1.
   1450,   21.7898026,   47.8786278,           1.
   1451,   23.9598331,   47.8735771,           1.
   1452,   26.1298523,    47.869236,           1.
   1453,   28.2998657,   47.8651733,           1.
   1454,   30.4698792,   47.8612175,           1.
   1455,   32.6398964,    47.857296,           1.
   1456,    34.809906,   47.8533897,           1.
   1457,   36.9799156,   47.8494873,           1.
   1458,   39.1499329,   47.8455849,           1.
   1459,   41.3199463,   47.8416862,           1.
   1460,   43.4899597,   47.8377838,           1.
   1461,   45.6599731,   47.8338814,           1.
   1462,   47.8299828,   47.8299866,           1.
   1463,    15.340663,   45.8329964,           1.
   1464,   17.5077763,   45.7941628,           1.
   1465,   19.6742382,   45.7718697,           1.
   1466,   21.8404694,   45.7577705,           1.
   1467,   24.0066204,   45.7473869,           1.
   1468,   26.1727448,   45.7385674,           1.
   1469,   28.3388615,   45.7303886,           1.
   1470,   30.5049763,   45.7224464,           1.
   1471,    32.671093,   45.7145958,           1.
   1472,    34.837204,   45.7067757,           1.
   1473,    37.003315,   45.6989746,           1.
   1474,   39.1694298,   45.6911736,           1.
   1475,   41.3355446,   45.6833687,           1.
   1476,   43.5016594,   45.6755714,           1.
   1477,   45.6677704,   45.6677742,           1.
   1478,   47.8338814,   45.6599731,           1.
   1479,   15.4023399,   43.7512932,           1.
   1480,   17.5659962,   43.6929626,           1.
   1481,   19.7287331,   43.6589317,           1.
   1482,   21.8911285,   43.6372795,           1.
   1483,   24.0534058,   43.6213837,           1.
   1484,   26.2156391,   43.6079903,           1.
   1485,   28.3778591,   43.5956383,           1.
   1486,   30.5400753,   43.5836945,           1.
   1487,   32.7022896,   43.5719032,           1.
   1488,    34.864502,   43.5601692,           1.
   1489,   37.0267143,   43.5484619,           1.
   1490,   39.1889305,   43.5367584,           1.
   1491,   41.3511467,   43.5250549,           1.
   1492,   43.5133553,   43.5133629,           1.
   1493,   45.6755714,   43.5016594,           1.
   1494,   47.8377876,   43.4899597,           1.
   1495,   15.4640207,   41.6699219,           1.
   1496,   17.6242123,   41.5921669,           1.
   1497,   19.7832241,   41.5463181,           1.
   1498,   21.9417877,   41.5169945,           1.
   1499,   24.1001892,   41.4954987,           1.
   1500,   26.2585297,   41.4774742,           1.
   1501,   28.4168549,   41.4609184,           1.
   1502,   30.5751724,   41.4449577,           1.
   1503,   32.7334862,   41.4292183,           1.
   1504,   34.8917999,   41.4135666,           1.
   1505,   37.0501137,   41.3979492,           1.
   1506,   39.2084236,   41.3823433,           1.
   1507,   41.3667412,    41.366745,           1.
   1508,   43.5250549,   41.3511467,           1.
   1509,   45.6833763,   41.3355446,           1.
   1510,   47.8416862,   41.3199463,           1.
   1511,    15.525691,   39.5887032,           1.
   1512,   17.6824226,   39.4915581,           1.
   1513,   19.8377132,   39.4338608,           1.
   1514,   21.9924469,   39.3968163,           1.
   1515,   24.1469727,   39.3696823,           1.
   1516,   26.3014221,   39.3470001,           1.
   1517,   28.4558506,   39.3262215,           1.
   1518,   30.6102695,    39.306221,           1.
   1519,   32.7646828,   39.2865334,           1.
   1520,   34.9190979,    39.266964,           1.
   1521,    37.073513,   39.2474403,           1.
   1522,   39.2279243,    39.227932,           1.
   1523,   41.3823433,   39.2084312,           1.
   1524,   43.5367584,   39.1889305,           1.
   1525,   45.6911736,   39.1694298,           1.
   1526,   47.8455849,   39.1499329,           1.
   1527,   15.5873518,   37.5075569,           1.
   1528,   17.7406311,   37.3910255,           1.
   1529,   19.8922024,   37.3214722,           1.
   1530,   22.0431061,   37.2766914,           1.
   1531,   24.1937561,   37.2438965,           1.
   1532,   26.3443165,   37.2165413,           1.
   1533,   28.4948483,   37.1915321,           1.
   1534,   30.6453686,   37.1674995,           1.
   1535,   32.7958794,   37.1438522,           1.
   1536,   34.9463959,   37.1203651,           1.
   1537,   37.0969124,   37.0969276,           1.
   1538,   39.2474251,   37.0735168,           1.
   1539,   41.3979454,   37.0501137,           1.
   1540,   43.5484581,   37.0267143,           1.
   1541,   45.6989708,    37.003315,           1.
   1542,   47.8494835,   36.9799194,           1.
   1543,    15.649003,   35.4264412,           1.
   1544,   17.7988319,   35.2905312,           1.
   1545,   19.9466877,   35.2091179,           1.
   1546,   22.0937595,   35.1565933,           1.
   1547,   24.2405376,   35.1181297,           1.
   1548,    26.387207,   35.0860901,           1.
   1549,    28.533844,   35.0568466,           1.
   1550,   30.6804638,   35.0287743,           1.
   1551,    32.827076,   35.0011711,           1.
   1552,   34.9736938,   34.9737625,           1.
   1553,   37.1203117,   34.9464226,           1.
   1554,   39.2669258,   34.9191055,           1.
   1555,   41.4135399,   34.8918037,           1.
   1556,    43.560154,    34.864502,           1.
   1557,    45.706768,   34.8372002,           1.
   1558,   47.8533821,    34.809906,           1.
   1559,   15.7106447,   33.3453445,           1.
   1560,   17.8570309,    33.190052,           1.
   1561,   20.0011711,   33.0967751,           1.
   1562,   22.1444168,   33.0365028,           1.
   1563,   24.2873211,   32.9923706,           1.
   1564,   26.4300995,   32.9556465,           1.
   1565,   28.5728359,   32.9221687,           1.
   1566,    30.715559,   32.8900566,           1.
   1567,   32.8582764,   32.8584938,           1.
   1568,   35.0009918,   32.8271599,           1.
   1569,   37.1437073,   32.7959099,           1.
   1570,   39.2864227,   32.7646942,           1.
   1571,   41.4291382,     32.73349,           1.
   1572,   43.5718498,   32.7022858,           1.
   1573,   45.7145691,   32.6710854,           1.
   1574,   47.8572807,   32.6398926,           1.
   1575,   15.7722654,   31.2642765,           1.
   1576,   17.9152203,   31.0895901,           1.
   1577,   20.0556507,   30.9844418,           1.
   1578,   22.1950684,     30.91642,           1.
   1579,   24.3341007,   30.8666096,           1.
   1580,     26.47299,    30.825201,           1.
   1581,   28.6118317,   30.7874889,           1.
   1582,   30.7506561,   30.7513332,           1.
   1583,   32.8894768,   30.7158184,           1.
   1584,   35.0282898,   30.6805592,           1.
   1585,   37.1671028,    30.645401,           1.
   1586,   39.3059196,   30.6102829,           1.
   1587,   41.4447365,   30.5751781,           1.
   1588,   43.5835457,   30.5400753,           1.
   1589,   45.7223625,   30.5049763,           1.
   1590,   47.8611794,   30.4698792,           1.
   1591,   15.8338394,   29.1832504,           1.
   1592,   17.9733868,   28.9891434,           1.
   1593,   20.1101208,   28.8721218,           1.
   1594,   22.2457199,   28.7963409,           1.
   1595,   24.3808823,   28.7408581,           1.
   1596,   26.5158844,   28.6947613,           1.
   1597,   28.6508274,   28.6528091,           1.
   1598,   30.7857513,   28.6126118,           1.
   1599,   32.9206734,    28.573143,           1.
   1600,   35.0555878,   28.5339584,           1.
   1601,   37.1905022,    28.494894,           1.
   1602,   39.3254204,   28.4558716,           1.
   1603,   41.4603386,   28.4168625,           1.
   1604,   43.5952492,   28.3778629,           1.
   1605,   45.7301674,   28.3388653,           1.
   1606,   47.8650818,   28.2998657,           1.
   1607,   15.8953161,   27.1023083,           1.
   1608,   18.0315113,    26.888731,           1.
   1609,   20.1645718,   26.7598095,           1.
   1610,   22.2963619,   26.6762676,           1.
   1611,   24.4276581,   26.6151047,           1.
   1612,   26.5587711,   26.5643215,           1.
   1613,   28.6898193,   26.5181293,           1.
   1614,   30.8208466,   26.4738922,           1.
   1615,     32.95187,   26.4304657,           1.
   1616,   35.0828857,   26.3873596,           1.
   1617,   37.2139015,   26.3443851,           1.
   1618,   39.3449135,   26.3014584,           1.
   1619,   41.4759331,   26.2585506,           1.
   1620,   43.6069527,   26.2156506,           1.
   1621,   45.7379723,   26.1727505,           1.
   1622,   47.8689842,   26.1298523,           1.
   1623,   15.9566231,   25.0214443,           1.
   1624,   18.0895557,   24.7883453,           1.
   1625,   20.2189884,   24.6475086,           1.
   1626,   22.3469906,      24.5562,           1.
   1627,    24.474432,    24.489357,           1.
   1628,   26.6016617,   24.4338837,           1.
   1629,   28.7288151,   24.3834534,           1.
   1630,   30.8559418,   24.3351746,           1.
   1631,   32.9830666,   24.2877884,           1.
   1632,   35.1101837,   24.2407608,           1.
   1633,   37.2373009,   24.1938763,           1.
   1634,   39.3644142,    24.147047,           1.
   1635,   41.4915352,   24.1002369,           1.
   1636,   43.6186523,   24.0534363,           1.
   1637,   45.7457695,   24.0066376,           1.
   1638,   47.8728828,   23.9598389,           1.
   1639,   16.0179882,   22.9403286,           1.
   1640,   18.1480122,   22.6878052,           1.
   1641,   20.2740326,   22.5351543,           1.
   1642,   22.3983364,   22.4361324,           1.
   1643,   24.5219288,   22.3636341,           1.
   1644,   26.6452465,   22.3034821,           1.
   1645,   28.7684612,   22.2488155,           1.
   1646,   30.8916397,   22.1964931,           1.
   1647,   33.0148087,   22.1451435,           1.
   1648,     35.13797,   22.0941906,           1.
   1649,   37.2611275,   22.0433941,           1.
   1650,   39.3842888,   21.9926548,           1.
   1651,   41.5074501,   21.9419422,           1.
   1652,   43.6306114,   21.8912354,           1.
   1653,   45.7537689,   21.8405361,           1.
   1654,   47.8769264,    21.789835,           1.
   1655,   16.0865955,   20.8571949,           1.
   1656,   18.2176285,   20.5863686,           1.
   1657,    20.341835,   20.4226837,           1.
   1658,   22.4626236,   20.3163471,           1.
   1659,   24.5818691,   20.2383518,           1.
   1660,   26.7004757,   20.1735592,           1.
   1661,   28.8188324,   20.1146374,           1.
   1662,   30.9370956,   20.0582371,           1.
   1663,   33.0553322,   20.0028858,           1.
   1664,   35.1735535,   19.9479656,           1.
   1665,   37.2917747,   19.8932114,           1.
   1666,   39.4099922,    19.838522,           1.
   1667,   41.5282097,   19.7838612,           1.
   1668,   43.6464233,    19.729208,           1.
   1669,    45.764637,   19.6745605,           1.
   1670,   47.8827171,   19.6199036,           1.
   1671,   16.2055168,   18.7569084,           1.
   1672,   18.3540363,   18.4763718,           1.
   1673,   20.4806976,   18.3074017,           1.
   1674,   22.5964966,   18.1966534,           1.
   1675,     24.70751,   18.1143646,           1.
   1676,    26.816597,   18.0453224,           1.
   1677,   28.9249439,   17.9821987,           1.
   1678,   31.0330296,    17.921629,           1.
   1679,   33.1410255,   17.8621292,           1.
   1680,   35.2489891,    17.803072,           1.
   1681,   37.3569374,   17.7441883,           1.
   1682,   39.4648895,   17.6853733,           1.
   1683,    41.572834,    17.626585,           1.
   1684,   43.6807747,   17.5678082,           1.
   1685,   45.7886047,   17.5090275,           1.
   1686,   47.8955345,   17.4502125,           1.
   1687,   16.4808407,    16.589035,           1.
   1688,   18.6709423,   16.3338184,           1.
   1689,   20.7983341,   16.1783161,           1.
   1690,   22.8991795,   16.0714931,           1.
   1691,   24.9898281,   15.9884424,           1.
   1692,    27.076622,   15.9165688,           1.
   1693,   29.1620121,   15.8497763,           1.
   1694,    31.246912,   15.7852144,           1.
   1695,    33.331646,   15.7216101,           1.
   1696,   35.4163208,   15.6584044,           1.
   1697,   37.5009804,    15.595355,           1.
   1698,   39.5856285,   15.5323687,           1.
   1699,    41.670269,   15.4694099,           1.
   1700,   43.7548485,    15.406455,           1.
   1701,   45.8389626,   15.3434839,           1.
   1702,   47.9211426,   15.2804451,           1.
   1703,    48.011013,   10.9367561,           1.
   1704,   48.0703278,   8.75926876,           1.
   1705,   48.1282959,   6.57626486,           1.
   1706,   48.1789246,   4.38774443,           1.
   1707,    48.220356,   2.19492984,           1.
   1708,   46.0216789,    11.003684,           1.
   1709,   46.1401215,   8.82251644,           1.
   1710,   46.2559319,   6.63041496,           1.
   1711,   46.3571587,   4.42733526,           1.
   1712,   46.4402962,   2.21576905,           1.
   1713,    44.031559,   11.0706053,           1.
   1714,   44.2096596,   8.88572311,           1.
   1715,   44.3835106,   6.68446922,           1.
   1716,   44.5352669,   4.46680498,           1.
   1717,   44.6601372,    2.2365272,           1.
   1718,   42.0410423,   11.1375093,           1.
   1719,   42.2790794,   8.94888592,           1.
   1720,   42.5110207,   6.73844767,           1.
   1721,   42.7132759,    4.5061903,           1.
   1722,   42.8798943,   2.25722909,           1.
   1723,    40.050396,   11.2043943,           1.
   1724,   40.3484077,   9.01201153,           1.
   1725,   40.6384544,   6.79237556,           1.
   1726,    40.891201,   4.54552555,           1.
   1727,   41.0995979,   2.27789879,           1.
   1728,   38.0597153,   11.2712755,           1.
   1729,   38.4177055,   9.07511902,           1.
   1730,   38.7658463,   6.84627771,           1.
   1731,   39.0690842,   4.58483505,           1.
   1732,   39.3192673,   2.29855204,           1.
   1733,   36.0690155,   11.3381729,           1.
   1734,   36.4869881,    9.1382246,           1.
   1735,   36.8932228,   6.90016794,           1.
   1736,   37.2469521,    4.6241312,           1.
   1737,   37.5389214,   2.31919694,           1.
   1738,   34.0783157,   11.4051208,           1.
   1739,   34.5562706,   9.20134068,           1.
   1740,   35.0206032,    6.9540534,           1.
   1741,   35.4248161,   4.66341925,           1.
   1742,   35.7585793,   2.33983636,           1.
   1743,   32.0876045,    11.472188,           1.
   1744,   32.6255836,   9.26448536,           1.
   1745,   33.1480217,   7.00792933,           1.
   1746,   33.6027107,   4.70269442,           1.
   1747,   33.9782448,   2.36046863,           1.
   1748,   30.0968723,    11.539525,           1.
   1749,   30.6949673,   9.32768345,           1.
   1750,   31.2755356,   7.06177521,           1.
   1751,   31.7806759,   4.74193096,           1.
   1752,   32.1979485,   2.38108039,           1.
   1753,     28.10602,   11.6074438,           1.
   1754,   28.7645245,   9.39096832,           1.
   1755,   29.4033298,   7.11551809,           1.
   1756,   29.9588699,   4.78105783,           1.
   1757,   30.4177647,   2.40163398,           1.
   1758,   26.1147518,    11.676528,           1.
   1759,   26.8344975,   9.45429516,           1.
   1760,   27.5318699,   7.16888475,           1.
   1761,   28.1376934,   4.81981325,           1.
   1762,   28.6379185,   2.42196751,           1.
   1763,   24.1222763,   11.7475023,           1.
   1764,   24.9057159,   9.51689148,           1.
   1765,   25.6626492,   7.22060013,           1.
   1766,   26.3184719,   4.85702753,           1.
   1767,   26.8591557,    2.4413569,           1.
   1768,   22.1289444,    11.818429,           1.
   1769,   22.9832554,   9.57196426,           1.
   1770,   23.8019638,   7.26282167,           1.
   1771,   24.5062466,   4.88611364,           1.
   1772,   25.0841522,    2.4557519,           1.
   1773,   20.1347485,   11.8760462,           1.
   1774,   21.0821438,   9.59967041,           1.
   1775,   21.9682751,   7.27803421,           1.
   1776,   22.7167416,   4.89512777,           1.
   1777,   23.3237686,   2.46052051,           1.
   1778,   18.1439762,   11.8939276,           1.
   1779,    19.239212,   9.57674313,           1.
   1780,   20.2042694,   7.25323725,           1.
   1781,   20.9890728,   4.87967634,           1.
   1782,   21.6006947,   2.45430851,           1.
   1783,   12.0493307,   1.58632445,           1.
   1784,   11.7391901,   3.14550638,           1.
   1785,   11.2281885,   4.65086794,           1.
   1786,   10.5250692,   6.07665157,           1.
   1787,   9.64186382,    7.3984623,           1.
   1788,   8.59368324,   8.59368324,           1.
   1789,    7.3984623,   9.64186382,           1.
   1790,   6.07665157,   10.5250692,           1.
   1791,   4.65086794,   11.2281885,           1.
   1792,   3.14550638,   11.7391901,           1.
   1793,   1.58632445,   12.0493307,           1.
   1794,   14.1842117,   1.86738694,           1.
   1795,   13.8191214,   3.70282245,           1.
   1796,   13.2175817,   5.47490168,           1.
   1797,   12.3898849,   7.15330362,           1.
   1798,    11.350194,   8.70931053,           1.
   1799,   10.1162987,   10.1162987,           1.
   1800,   8.70931053,    11.350194,           1.
   1801,   7.15330362,   12.3898849,           1.
   1802,   5.47490168,   13.2175817,           1.
   1803,   3.70282245,   13.8191214,           1.
   1804,   1.86738694,   14.1842117,           1.
   1805,   16.3190937,   2.14844942,           1.
   1806,   15.8990526,   4.26013851,           1.
   1807,    15.206974,   6.29893494,           1.
   1808,   14.2547007,   8.22995567,           1.
   1809,   13.0585251,   10.0201588,           1.
   1810,   11.6389141,   11.6389141,           1.
   1811,   10.0201588,   13.0585251,           1.
   1812,   8.22995567,   14.2547007,           1.
   1813,   6.29893494,    15.206974,           1.
   1814,   4.26013851,   15.8990526,           1.
   1815,   2.14844942,   16.3190937,           1.
*Element, type=C3D8
   1,  262,   33,  251, 1329,   31,    1,   32,  234
   2,  263,   34,  252, 1328,  262,   33,  251, 1329
   3,  264,   35,  253, 1327,  263,   34,  252, 1328
   4,  265,   36,  254, 1326,  264,   35,  253, 1327
   5,  266,   37,  255, 1325,  265,   36,  254, 1326
   6,  267,   38,  256, 1324,  266,   37,  255, 1325
   7,  251,   61,  721, 1329,   32,    2,   44,  234
   8,  252,   62,  722, 1328,  251,   61,  721, 1329
   9,  253,   63,  723, 1327,  252,   62,  722, 1328
  10,  254,   64,  724, 1326,  253,   63,  723, 1327
  11,  255,   65,  725, 1325,  254,   64,  724, 1326
  12,  256,   66,  726, 1324,  255,   65,  725, 1325
  13,  721,  727, 1367, 1329,   44,   45,  235,  234
  14,  727,  728, 1368, 1367,   45,   46,  236,  235
  15,  728,  729, 1369, 1368,   46,   47,  237,  236
  16,  729,  730, 1370, 1369,   47,   48,  238,  237
  17,  730,  731, 1371, 1370,   48,   49,  239,  238
  18,  731,  732, 1372, 1371,   49,   50,  240,  239
  19,  732,  733, 1373, 1372,   50,   51,  241,  240
  20,  733,  734, 1374, 1373,   51,   52,  242,  241
  21,  734,  735, 1375, 1374,   52,   53,  243,  242
  22,  735,  736, 1376, 1375,   53,   54,  244,  243
  23,  736,  737, 1377, 1376,   54,   55,  245,  244
  24,  737,  738, 1378, 1377,   55,   56,  246,  245
  25,  738,  739, 1379, 1378,   56,   57,  247,  246
  26,  739,  740, 1380, 1379,   57,   58,  248,  247
  27,  740,  741, 1381, 1380,   58,   59,  249,  248
  28,  741,  742, 1382, 1381,   59,   60,  250,  249
  29,  742,   73, 1180, 1382,   60,    3,   72,  250
  30,  722,  743, 1383, 1328,  721,  727, 1367, 1329
  31,  743,  744, 1384, 1383,  727,  728, 1368, 1367
  32,  744,  745, 1385, 1384,  728,  729, 1369, 1368
  33,  745,  746, 1386, 1385,  729,  730, 1370, 1369
  34,  746,  747, 1387, 1386,  730,  731, 1371, 1370
  35,  747,  748, 1388, 1387,  731,  732, 1372, 1371
  36,  748,  749, 1389, 1388,  732,  733, 1373, 1372
  37,  749,  750, 1390, 1389,  733,  734, 1374, 1373
  38,  750,  751, 1391, 1390,  734,  735, 1375, 1374
  39,  751,  752, 1392, 1391,  735,  736, 1376, 1375
  40,  752,  753, 1393, 1392,  736,  737, 1377, 1376
  41,  753,  754, 1394, 1393,  737,  738, 1378, 1377
  42,  754,  755, 1395, 1394,  738,  739, 1379, 1378
  43,  755,  756, 1396, 1395,  739,  740, 1380, 1379
  44,  756,  757, 1397, 1396,  740,  741, 1381, 1380
  45,  757,  758, 1398, 1397,  741,  742, 1382, 1381
  46,  758,   74, 1181, 1398,  742,   73, 1180, 1382
  47,  723,  759, 1399, 1327,  722,  743, 1383, 1328
  48,  759,  760, 1400, 1399,  743,  744, 1384, 1383
  49,  760,  761, 1401, 1400,  744,  745, 1385, 1384
  50,  761,  762, 1402, 1401,  745,  746, 1386, 1385
  51,  762,  763, 1403, 1402,  746,  747, 1387, 1386
  52,  763,  764, 1404, 1403,  747,  748, 1388, 1387
  53,  764,  765, 1405, 1404,  748,  749, 1389, 1388
  54,  765,  766, 1406, 1405,  749,  750, 1390, 1389
  55,  766,  767, 1407, 1406,  750,  751, 1391, 1390
  56,  767,  768, 1408, 1407,  751,  752, 1392, 1391
  57,  768,  769, 1409, 1408,  752,  753, 1393, 1392
  58,  769,  770, 1410, 1409,  753,  754, 1394, 1393
  59,  770,  771, 1411, 1410,  754,  755, 1395, 1394
  60,  771,  772, 1412, 1411,  755,  756, 1396, 1395
  61,  772,  773, 1413, 1412,  756,  757, 1397, 1396
  62,  773,  774, 1414, 1413,  757,  758, 1398, 1397
  63,  774,   75, 1182, 1414,  758,   74, 1181, 1398
  64,  724,  775, 1415, 1326,  723,  759, 1399, 1327
  65,  775,  776, 1416, 1415,  759,  760, 1400, 1399
  66,  776,  777, 1417, 1416,  760,  761, 1401, 1400
  67,  777,  778, 1418, 1417,  761,  762, 1402, 1401
  68,  778,  779, 1419, 1418,  762,  763, 1403, 1402
  69,  779,  780, 1420, 1419,  763,  764, 1404, 1403
  70,  780,  781, 1421, 1420,  764,  765, 1405, 1404
  71,  781,  782, 1422, 1421,  765,  766, 1406, 1405
  72,  782,  783, 1423, 1422,  766,  767, 1407, 1406
  73,  783,  784, 1424, 1423,  767,  768, 1408, 1407
  74,  784,  785, 1425, 1424,  768,  769, 1409, 1408
  75,  785,  786, 1426, 1425,  769,  770, 1410, 1409
  76,  786,  787, 1427, 1426,  770,  771, 1411, 1410
  77,  787,  788, 1428, 1427,  771,  772, 1412, 1411
  78,  788,  789, 1429, 1428,  772,  773, 1413, 1412
  79,  789,  790, 1430, 1429,  773,  774, 1414, 1413
  80,  790,   76, 1183, 1430,  774,   75, 1182, 1414
  81,  725,  791, 1431, 1325,  724,  775, 1415, 1326
  82,  791,  792, 1432, 1431,  775,  776, 1416, 1415
  83,  792,  793, 1433, 1432,  776,  777, 1417, 1416
  84,  793,  794, 1434, 1433,  777,  778, 1418, 1417
  85,  794,  795, 1435, 1434,  778,  779, 1419, 1418
  86,  795,  796, 1436, 1435,  779,  780, 1420, 1419
  87,  796,  797, 1437, 1436,  780,  781, 1421, 1420
  88,  797,  798, 1438, 1437,  781,  782, 1422, 1421
  89,  798,  799, 1439, 1438,  782,  783, 1423, 1422
  90,  799,  800, 1440, 1439,  783,  784, 1424, 1423
  91,  800,  801, 1441, 1440,  784,  785, 1425, 1424
  92,  801,  802, 1442, 1441,  785,  786, 1426, 1425
  93,  802,  803, 1443, 1442,  786,  787, 1427, 1426
  94,  803,  804, 1444, 1443,  787,  788, 1428, 1427
  95,  804,  805, 1445, 1444,  788,  789, 1429, 1428
  96,  805,  806, 1446, 1445,  789,  790, 1430, 1429
  97,  806,   77, 1184, 1446,  790,   76, 1183, 1430
  98,  726,  807, 1330, 1324,  725,  791, 1431, 1325
  99,  807,  808, 1331, 1330,  791,  792, 1432, 1431
 100,  808,  809, 1332, 1331,  792,  793, 1433, 1432
 101,  809,  810, 1333, 1332,  793,  794, 1434, 1433
 102,  810,  811, 1334, 1333,  794,  795, 1435, 1434
 103,  811,  812, 1335, 1334,  795,  796, 1436, 1435
 104,  812,  813, 1336, 1335,  796,  797, 1437, 1436
 105,  813,  814, 1337, 1336,  797,  798, 1438, 1437
 106,  814,  815, 1338, 1337,  798,  799, 1439, 1438
 107,  815,  816, 1339, 1338,  799,  800, 1440, 1439
 108,  816,  817, 1340, 1339,  800,  801, 1441, 1440
 109,  817,  818, 1341, 1340,  801,  802, 1442, 1441
 110,  818,  819, 1342, 1341,  802,  803, 1443, 1442
 111,  819,  820, 1343, 1342,  803,  804, 1444, 1443
 112,  820,  821, 1344, 1343,  804,  805, 1445, 1444
 113,  821,  822, 1345, 1344,  805,  806, 1446, 1445
 114,  822,   78, 1185, 1345,  806,   77, 1184, 1446
 115, 1180,   95,  268, 1382,   72,    4,   15,  250
 116, 1382,  268,  269, 1381,  250,   15,   16,  249
 117, 1381,  269,  270, 1380,  249,   16,   17,  248
 118, 1380,  270,  271, 1379,  248,   17,   18,  247
 119, 1379,  271,  272, 1378,  247,   18,   19,  246
 120, 1378,  272,  273, 1377,  246,   19,   20,  245
 121, 1377,  273,  274, 1376,  245,   20,   21,  244
 122, 1376,  274,  275, 1375,  244,   21,   22,  243
 123, 1375,  275,  276, 1374,  243,   22,   23,  242
 124, 1374,  276,  277, 1373,  242,   23,   24,  241
 125, 1373,  277,  278, 1372,  241,   24,   25,  240
 126, 1372,  278,  279, 1371,  240,   25,   26,  239
 127, 1371,  279,  280, 1370,  239,   26,   27,  238
 128, 1370,  280,  281, 1369,  238,   27,   28,  237
 129, 1369,  281,  282, 1368,  237,   28,   29,  236
 130, 1368,  282,  283, 1367,  236,   29,   30,  235
 131, 1367,  283,  262, 1329,  235,   30,   31,  234
 132, 1181,   96,  284, 1398, 1180,   95,  268, 1382
 133, 1398,  284,  285, 1397, 1382,  268,  269, 1381
 134, 1397,  285,  286, 1396, 1381,  269,  270, 1380
 135, 1396,  286,  287, 1395, 1380,  270,  271, 1379
 136, 1395,  287,  288, 1394, 1379,  271,  272, 1378
 137, 1394,  288,  289, 1393, 1378,  272,  273, 1377
 138, 1393,  289,  290, 1392, 1377,  273,  274, 1376
 139, 1392,  290,  291, 1391, 1376,  274,  275, 1375
 140, 1391,  291,  292, 1390, 1375,  275,  276, 1374
 141, 1390,  292,  293, 1389, 1374,  276,  277, 1373
 142, 1389,  293,  294, 1388, 1373,  277,  278, 1372
 143, 1388,  294,  295, 1387, 1372,  278,  279, 1371
 144, 1387,  295,  296, 1386, 1371,  279,  280, 1370
 145, 1386,  296,  297, 1385, 1370,  280,  281, 1369
 146, 1385,  297,  298, 1384, 1369,  281,  282, 1368
 147, 1384,  298,  299, 1383, 1368,  282,  283, 1367
 148, 1383,  299,  263, 1328, 1367,  283,  262, 1329
 149, 1182,   97,  300, 1414, 1181,   96,  284, 1398
 150, 1414,  300,  301, 1413, 1398,  284,  285, 1397
 151, 1413,  301,  302, 1412, 1397,  285,  286, 1396
 152, 1412,  302,  303, 1411, 1396,  286,  287, 1395
 153, 1411,  303,  304, 1410, 1395,  287,  288, 1394
 154, 1410,  304,  305, 1409, 1394,  288,  289, 1393
 155, 1409,  305,  306, 1408, 1393,  289,  290, 1392
 156, 1408,  306,  307, 1407, 1392,  290,  291, 1391
 157, 1407,  307,  308, 1406, 1391,  291,  292, 1390
 158, 1406,  308,  309, 1405, 1390,  292,  293, 1389
 159, 1405,  309,  310, 1404, 1389,  293,  294, 1388
 160, 1404,  310,  311, 1403, 1388,  294,  295, 1387
 161, 1403,  311,  312, 1402, 1387,  295,  296, 1386
 162, 1402,  312,  313, 1401, 1386,  296,  297, 1385
 163, 1401,  313,  314, 1400, 1385,  297,  298, 1384
 164, 1400,  314,  315, 1399, 1384,  298,  299, 1383
 165, 1399,  315,  264, 1327, 1383,  299,  263, 1328
 166, 1183,   98,  316, 1430, 1182,   97,  300, 1414
 167, 1430,  316,  317, 1429, 1414,  300,  301, 1413
 168, 1429,  317,  318, 1428, 1413,  301,  302, 1412
 169, 1428,  318,  319, 1427, 1412,  302,  303, 1411
 170, 1427,  319,  320, 1426, 1411,  303,  304, 1410
 171, 1426,  320,  321, 1425, 1410,  304,  305, 1409
 172, 1425,  321,  322, 1424, 1409,  305,  306, 1408
 173, 1424,  322,  323, 1423, 1408,  306,  307, 1407
 174, 1423,  323,  324, 1422, 1407,  307,  308, 1406
 175, 1422,  324,  325, 1421, 1406,  308,  309, 1405
 176, 1421,  325,  326, 1420, 1405,  309,  310, 1404
 177, 1420,  326,  327, 1419, 1404,  310,  311, 1403
 178, 1419,  327,  328, 1418, 1403,  311,  312, 1402
 179, 1418,  328,  329, 1417, 1402,  312,  313, 1401
 180, 1417,  329,  330, 1416, 1401,  313,  314, 1400
 181, 1416,  330,  331, 1415, 1400,  314,  315, 1399
 182, 1415,  331,  265, 1326, 1399,  315,  264, 1327
 183, 1184,   99,  332, 1446, 1183,   98,  316, 1430
 184, 1446,  332,  333, 1445, 1430,  316,  317, 1429
 185, 1445,  333,  334, 1444, 1429,  317,  318, 1428
 186, 1444,  334,  335, 1443, 1428,  318,  319, 1427
 187, 1443,  335,  336, 1442, 1427,  319,  320, 1426
 188, 1442,  336,  337, 1441, 1426,  320,  321, 1425
 189, 1441,  337,  338, 1440, 1425,  321,  322, 1424
 190, 1440,  338,  339, 1439, 1424,  322,  323, 1423
 191, 1439,  339,  340, 1438, 1423,  323,  324, 1422
 192, 1438,  340,  341, 1437, 1422,  324,  325, 1421
 193, 1437,  341,  342, 1436, 1421,  325,  326, 1420
 194, 1436,  342,  343, 1435, 1420,  326,  327, 1419
 195, 1435,  343,  344, 1434, 1419,  327,  328, 1418
 196, 1434,  344,  345, 1433, 1418,  328,  329, 1417
 197, 1433,  345,  346, 1432, 1417,  329,  330, 1416
 198, 1432,  346,  347, 1431, 1416,  330,  331, 1415
 199, 1431,  347,  266, 1325, 1415,  331,  265, 1326
 200, 1185,  100,  348, 1345, 1184,   99,  332, 1446
 201, 1345,  348,  349, 1344, 1446,  332,  333, 1445
 202, 1344,  349,  350, 1343, 1445,  333,  334, 1444
 203, 1343,  350,  351, 1342, 1444,  334,  335, 1443
 204, 1342,  351,  352, 1341, 1443,  335,  336, 1442
 205, 1341,  352,  353, 1340, 1442,  336,  337, 1441
 206, 1340,  353,  354, 1339, 1441,  337,  338, 1440
 207, 1339,  354,  355, 1338, 1440,  338,  339, 1439
 208, 1338,  355,  356, 1337, 1439,  339,  340, 1438
 209, 1337,  356,  357, 1336, 1438,  340,  341, 1437
 210, 1336,  357,  358, 1335, 1437,  341,  342, 1436
 211, 1335,  358,  359, 1334, 1436,  342,  343, 1435
 212, 1334,  359,  360, 1333, 1435,  343,  344, 1434
 213, 1333,  360,  361, 1332, 1434,  344,  345, 1433
 214, 1332,  361,  362, 1331, 1433,  345,  346, 1432
 215, 1331,  362,  363, 1330, 1432,  346,  347, 1431
 216, 1330,  363,  267, 1324, 1431,  347,  266, 1325
 217,  267,  364, 1350, 1324,   38,   39,  257,  256
 218,  364,  365, 1349, 1350,   39,   40,  258,  257
 219,  365,  366, 1348, 1349,   40,   41,  259,  258
 220,  366,  367, 1347, 1348,   41,   42,  260,  259
 221,  367,  368, 1346, 1347,   42,   43,  261,  260
 222,  368,  118, 1202, 1346,   43,    5,  117,  261
 223, 1202,  135,  823, 1346,  117,    6,   71,  261
 224, 1346,  823,  824, 1347,  261,   71,   70,  260
 225, 1347,  824,  825, 1348,  260,   70,   69,  259
 226, 1348,  825,  826, 1349,  259,   69,   68,  258
 227, 1349,  826,  827, 1350,  258,   68,   67,  257
 228, 1350,  827,  726, 1324,  257,   67,   66,  256
 229, 1185, 1186, 1447, 1345,  100,  101,  369,  348
 230, 1186, 1187, 1448, 1447,  101,  102,  370,  369
 231, 1187, 1188, 1449, 1448,  102,  103,  371,  370
 232, 1188, 1189, 1450, 1449,  103,  104,  372,  371
 233, 1189, 1190, 1451, 1450,  104,  105,  373,  372
 234, 1190, 1191, 1452, 1451,  105,  106,  374,  373
 235, 1191, 1192, 1453, 1452,  106,  107,  375,  374
 236, 1192, 1193, 1454, 1453,  107,  108,  376,  375
 237, 1193, 1194, 1455, 1454,  108,  109,  377,  376
 238, 1194, 1195, 1456, 1455,  109,  110,  378,  377
 239, 1195, 1196, 1457, 1456,  110,  111,  379,  378
 240, 1196, 1197, 1458, 1457,  111,  112,  380,  379
 241, 1197, 1198, 1459, 1458,  112,  113,  381,  380
 242, 1198, 1199, 1460, 1459,  113,  114,  382,  381
 243, 1199, 1200, 1461, 1460,  114,  115,  383,  382
 244, 1200, 1201, 1462, 1461,  115,  116,  384,  383
 245, 1201,  174, 1219, 1462,  116,    7,  152,  384
 246, 1345, 1447, 1463, 1344,  348,  369,  385,  349
 247, 1447, 1448, 1464, 1463,  369,  370,  386,  385
 248, 1448, 1449, 1465, 1464,  370,  371,  387,  386
 249, 1449, 1450, 1466, 1465,  371,  372,  388,  387
 250, 1450, 1451, 1467, 1466,  372,  373,  389,  388
 251, 1451, 1452, 1468, 1467,  373,  374,  390,  389
 252, 1452, 1453, 1469, 1468,  374,  375,  391,  390
 253, 1453, 1454, 1470, 1469,  375,  376,  392,  391
 254, 1454, 1455, 1471, 1470,  376,  377,  393,  392
 255, 1455, 1456, 1472, 1471,  377,  378,  394,  393
 256, 1456, 1457, 1473, 1472,  378,  379,  395,  394
 257, 1457, 1458, 1474, 1473,  379,  380,  396,  395
 258, 1458, 1459, 1475, 1474,  380,  381,  397,  396
 259, 1459, 1460, 1476, 1475,  381,  382,  398,  397
 260, 1460, 1461, 1477, 1476,  382,  383,  399,  398
 261, 1461, 1462, 1478, 1477,  383,  384,  400,  399
 262, 1462, 1219, 1220, 1478,  384,  152,  153,  400
 263, 1344, 1463, 1479, 1343,  349,  385,  401,  350
 264, 1463, 1464, 1480, 1479,  385,  386,  402,  401
 265, 1464, 1465, 1481, 1480,  386,  387,  403,  402
 266, 1465, 1466, 1482, 1481,  387,  388,  404,  403
 267, 1466, 1467, 1483, 1482,  388,  389,  405,  404
 268, 1467, 1468, 1484, 1483,  389,  390,  406,  405
 269, 1468, 1469, 1485, 1484,  390,  391,  407,  406
 270, 1469, 1470, 1486, 1485,  391,  392,  408,  407
 271, 1470, 1471, 1487, 1486,  392,  393,  409,  408
 272, 1471, 1472, 1488, 1487,  393,  394,  410,  409
 273, 1472, 1473, 1489, 1488,  394,  395,  411,  410
 274, 1473, 1474, 1490, 1489,  395,  396,  412,  411
 275, 1474, 1475, 1491, 1490,  396,  397,  413,  412
 276, 1475, 1476, 1492, 1491,  397,  398,  414,  413
 277, 1476, 1477, 1493, 1492,  398,  399,  415,  414
 278, 1477, 1478, 1494, 1493,  399,  400,  416,  415
 279, 1478, 1220, 1221, 1494,  400,  153,  154,  416
 280, 1343, 1479, 1495, 1342,  350,  401,  417,  351
 281, 1479, 1480, 1496, 1495,  401,  402,  418,  417
 282, 1480, 1481, 1497, 1496,  402,  403,  419,  418
 283, 1481, 1482, 1498, 1497,  403,  404,  420,  419
 284, 1482, 1483, 1499, 1498,  404,  405,  421,  420
 285, 1483, 1484, 1500, 1499,  405,  406,  422,  421
 286, 1484, 1485, 1501, 1500,  406,  407,  423,  422
 287, 1485, 1486, 1502, 1501,  407,  408,  424,  423
 288, 1486, 1487, 1503, 1502,  408,  409,  425,  424
 289, 1487, 1488, 1504, 1503,  409,  410,  426,  425
 290, 1488, 1489, 1505, 1504,  410,  411,  427,  426
 291, 1489, 1490, 1506, 1505,  411,  412,  428,  427
 292, 1490, 1491, 1507, 1506,  412,  413,  429,  428
 293, 1491, 1492, 1508, 1507,  413,  414,  430,  429
 294, 1492, 1493, 1509, 1508,  414,  415,  431,  430
 295, 1493, 1494, 1510, 1509,  415,  416,  432,  431
 296, 1494, 1221, 1222, 1510,  416,  154,  155,  432
 297, 1342, 1495, 1511, 1341,  351,  417,  433,  352
 298, 1495, 1496, 1512, 1511,  417,  418,  434,  433
 299, 1496, 1497, 1513, 1512,  418,  419,  435,  434
 300, 1497, 1498, 1514, 1513,  419,  420,  436,  435
 301, 1498, 1499, 1515, 1514,  420,  421,  437,  436
 302, 1499, 1500, 1516, 1515,  421,  422,  438,  437
 303, 1500, 1501, 1517, 1516,  422,  423,  439,  438
 304, 1501, 1502, 1518, 1517,  423,  424,  440,  439
 305, 1502, 1503, 1519, 1518,  424,  425,  441,  440
 306, 1503, 1504, 1520, 1519,  425,  426,  442,  441
 307, 1504, 1505, 1521, 1520,  426,  427,  443,  442
 308, 1505, 1506, 1522, 1521,  427,  428,  444,  443
 309, 1506, 1507, 1523, 1522,  428,  429,  445,  444
 310, 1507, 1508, 1524, 1523,  429,  430,  446,  445
 311, 1508, 1509, 1525, 1524,  430,  431,  447,  446
 312, 1509, 1510, 1526, 1525,  431,  432,  448,  447
 313, 1510, 1222, 1223, 1526,  432,  155,  156,  448
 314, 1341, 1511, 1527, 1340,  352,  433,  449,  353
 315, 1511, 1512, 1528, 1527,  433,  434,  450,  449
 316, 1512, 1513, 1529, 1528,  434,  435,  451,  450
 317, 1513, 1514, 1530, 1529,  435,  436,  452,  451
 318, 1514, 1515, 1531, 1530,  436,  437,  453,  452
 319, 1515, 1516, 1532, 1531,  437,  438,  454,  453
 320, 1516, 1517, 1533, 1532,  438,  439,  455,  454
 321, 1517, 1518, 1534, 1533,  439,  440,  456,  455
 322, 1518, 1519, 1535, 1534,  440,  441,  457,  456
 323, 1519, 1520, 1536, 1535,  441,  442,  458,  457
 324, 1520, 1521, 1537, 1536,  442,  443,  459,  458
 325, 1521, 1522, 1538, 1537,  443,  444,  460,  459
 326, 1522, 1523, 1539, 1538,  444,  445,  461,  460
 327, 1523, 1524, 1540, 1539,  445,  446,  462,  461
 328, 1524, 1525, 1541, 1540,  446,  447,  463,  462
 329, 1525, 1526, 1542, 1541,  447,  448,  464,  463
 330, 1526, 1223, 1224, 1542,  448,  156,  157,  464
 331, 1340, 1527, 1543, 1339,  353,  449,  465,  354
 332, 1527, 1528, 1544, 1543,  449,  450,  466,  465
 333, 1528, 1529, 1545, 1544,  450,  451,  467,  466
 334, 1529, 1530, 1546, 1545,  451,  452,  468,  467
 335, 1530, 1531, 1547, 1546,  452,  453,  469,  468
 336, 1531, 1532, 1548, 1547,  453,  454,  470,  469
 337, 1532, 1533, 1549, 1548,  454,  455,  471,  470
 338, 1533, 1534, 1550, 1549,  455,  456,  472,  471
 339, 1534, 1535, 1551, 1550,  456,  457,  473,  472
 340, 1535, 1536, 1552, 1551,  457,  458,  474,  473
 341, 1536, 1537, 1553, 1552,  458,  459,  475,  474
 342, 1537, 1538, 1554, 1553,  459,  460,  476,  475
 343, 1538, 1539, 1555, 1554,  460,  461,  477,  476
 344, 1539, 1540, 1556, 1555,  461,  462,  478,  477
 345, 1540, 1541, 1557, 1556,  462,  463,  479,  478
 346, 1541, 1542, 1558, 1557,  463,  464,  480,  479
 347, 1542, 1224, 1225, 1558,  464,  157,  158,  480
 348, 1339, 1543, 1559, 1338,  354,  465,  481,  355
 349, 1543, 1544, 1560, 1559,  465,  466,  482,  481
 350, 1544, 1545, 1561, 1560,  466,  467,  483,  482
 351, 1545, 1546, 1562, 1561,  467,  468,  484,  483
 352, 1546, 1547, 1563, 1562,  468,  469,  485,  484
 353, 1547, 1548, 1564, 1563,  469,  470,  486,  485
 354, 1548, 1549, 1565, 1564,  470,  471,  487,  486
 355, 1549, 1550, 1566, 1565,  471,  472,  488,  487
 356, 1550, 1551, 1567, 1566,  472,  473,  489,  488
 357, 1551, 1552, 1568, 1567,  473,  474,  490,  489
 358, 1552, 1553, 1569, 1568,  474,  475,  491,  490
 359, 1553, 1554, 1570, 1569,  475,  476,  492,  491
 360, 1554, 1555, 1571, 1570,  476,  477,  493,  492
 361, 1555, 1556, 1572, 1571,  477,  478,  494,  493
 362, 1556, 1557, 1573, 1572,  478,  479,  495,  494
 363, 1557, 1558, 1574, 1573,  479,  480,  496,  495
 364, 1558, 1225, 1226, 1574,  480,  158,  159,  496
 365, 1338, 1559, 1575, 1337,  355,  481,  497,  356
 366, 1559, 1560, 1576, 1575,  481,  482,  498,  497
 367, 1560, 1561, 1577, 1576,  482,  483,  499,  498
 368, 1561, 1562, 1578, 1577,  483,  484,  500,  499
 369, 1562, 1563, 1579, 1578,  484,  485,  501,  500
 370, 1563, 1564, 1580, 1579,  485,  486,  502,  501
 371, 1564, 1565, 1581, 1580,  486,  487,  503,  502
 372, 1565, 1566, 1582, 1581,  487,  488,  504,  503
 373, 1566, 1567, 1583, 1582,  488,  489,  505,  504
 374, 1567, 1568, 1584, 1583,  489,  490,  506,  505
 375, 1568, 1569, 1585, 1584,  490,  491,  507,  506
 376, 1569, 1570, 1586, 1585,  491,  492,  508,  507
 377, 1570, 1571, 1587, 1586,  492,  493,  509,  508
 378, 1571, 1572, 1588, 1587,  493,  494,  510,  509
 379, 1572, 1573, 1589, 1588,  494,  495,  511,  510
 380, 1573, 1574, 1590, 1589,  495,  496,  512,  511
 381, 1574, 1226, 1227, 1590,  496,  159,  160,  512
 382, 1337, 1575, 1591, 1336,  356,  497,  513,  357
 383, 1575, 1576, 1592, 1591,  497,  498,  514,  513
 384, 1576, 1577, 1593, 1592,  498,  499,  515,  514
 385, 1577, 1578, 1594, 1593,  499,  500,  516,  515
 386, 1578, 1579, 1595, 1594,  500,  501,  517,  516
 387, 1579, 1580, 1596, 1595,  501,  502,  518,  517
 388, 1580, 1581, 1597, 1596,  502,  503,  519,  518
 389, 1581, 1582, 1598, 1597,  503,  504,  520,  519
 390, 1582, 1583, 1599, 1598,  504,  505,  521,  520
 391, 1583, 1584, 1600, 1599,  505,  506,  522,  521
 392, 1584, 1585, 1601, 1600,  506,  507,  523,  522
 393, 1585, 1586, 1602, 1601,  507,  508,  524,  523
 394, 1586, 1587, 1603, 1602,  508,  509,  525,  524
 395, 1587, 1588, 1604, 1603,  509,  510,  526,  525
 396, 1588, 1589, 1605, 1604,  510,  511,  527,  526
 397, 1589, 1590, 1606, 1605,  511,  512,  528,  527
 398, 1590, 1227, 1228, 1606,  512,  160,  161,  528
 399, 1336, 1591, 1607, 1335,  357,  513,  529,  358
 400, 1591, 1592, 1608, 1607,  513,  514,  530,  529
 401, 1592, 1593, 1609, 1608,  514,  515,  531,  530
 402, 1593, 1594, 1610, 1609,  515,  516,  532,  531
 403, 1594, 1595, 1611, 1610,  516,  517,  533,  532
 404, 1595, 1596, 1612, 1611,  517,  518,  534,  533
 405, 1596, 1597, 1613, 1612,  518,  519,  535,  534
 406, 1597, 1598, 1614, 1613,  519,  520,  536,  535
 407, 1598, 1599, 1615, 1614,  520,  521,  537,  536
 408, 1599, 1600, 1616, 1615,  521,  522,  538,  537
 409, 1600, 1601, 1617, 1616,  522,  523,  539,  538
 410, 1601, 1602, 1618, 1617,  523,  524,  540,  539
 411, 1602, 1603, 1619, 1618,  524,  525,  541,  540
 412, 1603, 1604, 1620, 1619,  525,  526,  542,  541
 413, 1604, 1605, 1621, 1620,  526,  527,  543,  542
 414, 1605, 1606, 1622, 1621,  527,  528,  544,  543
 415, 1606, 1228, 1229, 1622,  528,  161,  162,  544
 416, 1335, 1607, 1623, 1334,  358,  529,  545,  359
 417, 1607, 1608, 1624, 1623,  529,  530,  546,  545
 418, 1608, 1609, 1625, 1624,  530,  531,  547,  546
 419, 1609, 1610, 1626, 1625,  531,  532,  548,  547
 420, 1610, 1611, 1627, 1626,  532,  533,  549,  548
 421, 1611, 1612, 1628, 1627,  533,  534,  550,  549
 422, 1612, 1613, 1629, 1628,  534,  535,  551,  550
 423, 1613, 1614, 1630, 1629,  535,  536,  552,  551
 424, 1614, 1615, 1631, 1630,  536,  537,  553,  552
 425, 1615, 1616, 1632, 1631,  537,  538,  554,  553
 426, 1616, 1617, 1633, 1632,  538,  539,  555,  554
 427, 1617, 1618, 1634, 1633,  539,  540,  556,  555
 428, 1618, 1619, 1635, 1634,  540,  541,  557,  556
 429, 1619, 1620, 1636, 1635,  541,  542,  558,  557
 430, 1620, 1621, 1637, 1636,  542,  543,  559,  558
 431, 1621, 1622, 1638, 1637,  543,  544,  560,  559
 432, 1622, 1229, 1230, 1638,  544,  162,  163,  560
 433, 1334, 1623, 1639, 1333,  359,  545,  561,  360
 434, 1623, 1624, 1640, 1639,  545,  546,  562,  561
 435, 1624, 1625, 1641, 1640,  546,  547,  563,  562
 436, 1625, 1626, 1642, 1641,  547,  548,  564,  563
 437, 1626, 1627, 1643, 1642,  548,  549,  565,  564
 438, 1627, 1628, 1644, 1643,  549,  550,  566,  565
 439, 1628, 1629, 1645, 1644,  550,  551,  567,  566
 440, 1629, 1630, 1646, 1645,  551,  552,  568,  567
 441, 1630, 1631, 1647, 1646,  552,  553,  569,  568
 442, 1631, 1632, 1648, 1647,  553,  554,  570,  569
 443, 1632, 1633, 1649, 1648,  554,  555,  571,  570
 444, 1633, 1634, 1650, 1649,  555,  556,  572,  571
 445, 1634, 1635, 1651, 1650,  556,  557,  573,  572
 446, 1635, 1636, 1652, 1651,  557,  558,  574,  573
 447, 1636, 1637, 1653, 1652,  558,  559,  575,  574
 448, 1637, 1638, 1654, 1653,  559,  560,  576,  575
 449, 1638, 1230, 1231, 1654,  560,  163,  164,  576
 450, 1333, 1639, 1655, 1332,  360,  561,  577,  361
 451, 1639, 1640, 1656, 1655,  561,  562,  578,  577
 452, 1640, 1641, 1657, 1656,  562,  563,  579,  578
 453, 1641, 1642, 1658, 1657,  563,  564,  580,  579
 454, 1642, 1643, 1659, 1658,  564,  565,  581,  580
 455, 1643, 1644, 1660, 1659,  565,  566,  582,  581
 456, 1644, 1645, 1661, 1660,  566,  567,  583,  582
 457, 1645, 1646, 1662, 1661,  567,  568,  584,  583
 458, 1646, 1647, 1663, 1662,  568,  569,  585,  584
 459, 1647, 1648, 1664, 1663,  569,  570,  586,  585
 460, 1648, 1649, 1665, 1664,  570,  571,  587,  586
 461, 1649, 1650, 1666, 1665,  571,  572,  588,  587
 462, 1650, 1651, 1667, 1666,  572,  573,  589,  588
 463, 1651, 1652, 1668, 1667,  573,  574,  590,  589
 464, 1652, 1653, 1669, 1668,  574,  575,  591,  590
 465, 1653, 1654, 1670, 1669,  575,  576,  592,  591
 466, 1654, 1231, 1232, 1670,  576,  164,  165,  592
 467, 1332, 1655, 1671, 1331,  361,  577,  593,  362
 468, 1655, 1656, 1672, 1671,  577,  578,  594,  593
 469, 1656, 1657, 1673, 1672,  578,  579,  595,  594
 470, 1657, 1658, 1674, 1673,  579,  580,  596,  595
 471, 1658, 1659, 1675, 1674,  580,  581,  597,  596
 472, 1659, 1660, 1676, 1675,  581,  582,  598,  597
 473, 1660, 1661, 1677, 1676,  582,  583,  599,  598
 474, 1661, 1662, 1678, 1677,  583,  584,  600,  599
 475, 1662, 1663, 1679, 1678,  584,  585,  601,  600
 476, 1663, 1664, 1680, 1679,  585,  586,  602,  601
 477, 1664, 1665, 1681, 1680,  586,  587,  603,  602
 478, 1665, 1666, 1682, 1681,  587,  588,  604,  603
 479, 1666, 1667, 1683, 1682,  588,  589,  605,  604
 480, 1667, 1668, 1684, 1683,  589,  590,  606,  605
 481, 1668, 1669, 1685, 1684,  590,  591,  607,  606
 482, 1669, 1670, 1686, 1685,  591,  592,  608,  607
 483, 1670, 1232, 1233, 1686,  592,  165,  166,  608
 484, 1331, 1671, 1687, 1330,  362,  593,  609,  363
 485, 1671, 1672, 1688, 1687,  593,  594,  610,  609
 486, 1672, 1673, 1689, 1688,  594,  595,  611,  610
 487, 1673, 1674, 1690, 1689,  595,  596,  612,  611
 488, 1674, 1675, 1691, 1690,  596,  597,  613,  612
 489, 1675, 1676, 1692, 1691,  597,  598,  614,  613
 490, 1676, 1677, 1693, 1692,  598,  599,  615,  614
 491, 1677, 1678, 1694, 1693,  599,  600,  616,  615
 492, 1678, 1679, 1695, 1694,  600,  601,  617,  616
 493, 1679, 1680, 1696, 1695,  601,  602,  618,  617
 494, 1680, 1681, 1697, 1696,  602,  603,  619,  618
 495, 1681, 1682, 1698, 1697,  603,  604,  620,  619
 496, 1682, 1683, 1699, 1698,  604,  605,  621,  620
 497, 1683, 1684, 1700, 1699,  605,  606,  622,  621
 498, 1684, 1685, 1701, 1700,  606,  607,  623,  622
 499, 1685, 1686, 1702, 1701,  607,  608,  624,  623
 500, 1686, 1233, 1234, 1702,  608,  166,  167,  624
 501, 1330, 1687, 1366, 1324,  363,  609,  625,  267
 502, 1687, 1688, 1365, 1366,  609,  610,  626,  625
 503, 1688, 1689, 1364, 1365,  610,  611,  627,  626
 504, 1689, 1690, 1363, 1364,  611,  612,  628,  627
 505, 1690, 1691, 1362, 1363,  612,  613,  629,  628
 506, 1691, 1692, 1361, 1362,  613,  614,  630,  629
 507, 1692, 1693, 1360, 1361,  614,  615,  631,  630
 508, 1693, 1694, 1359, 1360,  615,  616,  632,  631
 509, 1694, 1695, 1358, 1359,  616,  617,  633,  632
 510, 1695, 1696, 1357, 1358,  617,  618,  634,  633
 511, 1696, 1697, 1356, 1357,  618,  619,  635,  634
 512, 1697, 1698, 1355, 1356,  619,  620,  636,  635
 513, 1698, 1699, 1354, 1355,  620,  621,  637,  636
 514, 1699, 1700, 1353, 1354,  621,  622,  638,  637
 515, 1700, 1701, 1352, 1353,  622,  623,  639,  638
 516, 1701, 1702, 1351, 1352,  623,  624,  640,  639
 517, 1702, 1234, 1235, 1351,  624,  167,  168,  640
 518, 1235, 1236, 1703, 1351,  168,  169,  641,  640
 519, 1236, 1237, 1704, 1703,  169,  170,  642,  641
 520, 1237, 1238, 1705, 1704,  170,  171,  643,  642
 521, 1238, 1239, 1706, 1705,  171,  172,  644,  643
 522, 1239, 1240, 1707, 1706,  172,  173,  645,  644
 523, 1240,  175, 1203, 1707,  173,    8,  134,  645
 524, 1351, 1703, 1708, 1352,  640,  641,  646,  639
 525, 1703, 1704, 1709, 1708,  641,  642,  647,  646
 526, 1704, 1705, 1710, 1709,  642,  643,  648,  647
 527, 1705, 1706, 1711, 1710,  643,  644,  649,  648
 528, 1706, 1707, 1712, 1711,  644,  645,  650,  649
 529, 1707, 1203, 1204, 1712,  645,  134,  133,  650
 530, 1352, 1708, 1713, 1353,  639,  646,  651,  638
 531, 1708, 1709, 1714, 1713,  646,  647,  652,  651
 532, 1709, 1710, 1715, 1714,  647,  648,  653,  652
 533, 1710, 1711, 1716, 1715,  648,  649,  654,  653
 534, 1711, 1712, 1717, 1716,  649,  650,  655,  654
 535, 1712, 1204, 1205, 1717,  650,  133,  132,  655
 536, 1353, 1713, 1718, 1354,  638,  651,  656,  637
 537, 1713, 1714, 1719, 1718,  651,  652,  657,  656
 538, 1714, 1715, 1720, 1719,  652,  653,  658,  657
 539, 1715, 1716, 1721, 1720,  653,  654,  659,  658
 540, 1716, 1717, 1722, 1721,  654,  655,  660,  659
 541, 1717, 1205, 1206, 1722,  655,  132,  131,  660
 542, 1354, 1718, 1723, 1355,  637,  656,  661,  636
 543, 1718, 1719, 1724, 1723,  656,  657,  662,  661
 544, 1719, 1720, 1725, 1724,  657,  658,  663,  662
 545, 1720, 1721, 1726, 1725,  658,  659,  664,  663
 546, 1721, 1722, 1727, 1726,  659,  660,  665,  664
 547, 1722, 1206, 1207, 1727,  660,  131,  130,  665
 548, 1355, 1723, 1728, 1356,  636,  661,  666,  635
 549, 1723, 1724, 1729, 1728,  661,  662,  667,  666
 550, 1724, 1725, 1730, 1729,  662,  663,  668,  667
 551, 1725, 1726, 1731, 1730,  663,  664,  669,  668
 552, 1726, 1727, 1732, 1731,  664,  665,  670,  669
 553, 1727, 1207, 1208, 1732,  665,  130,  129,  670
 554, 1356, 1728, 1733, 1357,  635,  666,  671,  634
 555, 1728, 1729, 1734, 1733,  666,  667,  672,  671
 556, 1729, 1730, 1735, 1734,  667,  668,  673,  672
 557, 1730, 1731, 1736, 1735,  668,  669,  674,  673
 558, 1731, 1732, 1737, 1736,  669,  670,  675,  674
 559, 1732, 1208, 1209, 1737,  670,  129,  128,  675
 560, 1357, 1733, 1738, 1358,  634,  671,  676,  633
 561, 1733, 1734, 1739, 1738,  671,  672,  677,  676
 562, 1734, 1735, 1740, 1739,  672,  673,  678,  677
 563, 1735, 1736, 1741, 1740,  673,  674,  679,  678
 564, 1736, 1737, 1742, 1741,  674,  675,  680,  679
 565, 1737, 1209, 1210, 1742,  675,  128,  127,  680
 566, 1358, 1738, 1743, 1359,  633,  676,  681,  632
 567, 1738, 1739, 1744, 1743,  676,  677,  682,  681
 568, 1739, 1740, 1745, 1744,  677,  678,  683,  682
 569, 1740, 1741, 1746, 1745,  678,  679,  684,  683
 570, 1741, 1742, 1747, 1746,  679,  680,  685,  684
 571, 1742, 1210, 1211, 1747,  680,  127,  126,  685
 572, 1359, 1743, 1748, 1360,  632,  681,  686,  631
 573, 1743, 1744, 1749, 1748,  681,  682,  687,  686
 574, 1744, 1745, 1750, 1749,  682,  683,  688,  687
 575, 1745, 1746, 1751, 1750,  683,  684,  689,  688
 576, 1746, 1747, 1752, 1751,  684,  685,  690,  689
 577, 1747, 1211, 1212, 1752,  685,  126,  125,  690
 578, 1360, 1748, 1753, 1361,  631,  686,  691,  630
 579, 1748, 1749, 1754, 1753,  686,  687,  692,  691
 580, 1749, 1750, 1755, 1754,  687,  688,  693,  692
 581, 1750, 1751, 1756, 1755,  688,  689,  694,  693
 582, 1751, 1752, 1757, 1756,  689,  690,  695,  694
 583, 1752, 1212, 1213, 1757,  690,  125,  124,  695
 584, 1361, 1753, 1758, 1362,  630,  691,  696,  629
 585, 1753, 1754, 1759, 1758,  691,  692,  697,  696
 586, 1754, 1755, 1760, 1759,  692,  693,  698,  697
 587, 1755, 1756, 1761, 1760,  693,  694,  699,  698
 588, 1756, 1757, 1762, 1761,  694,  695,  700,  699
 589, 1757, 1213, 1214, 1762,  695,  124,  123,  700
 590, 1362, 1758, 1763, 1363,  629,  696,  701,  628
 591, 1758, 1759, 1764, 1763,  696,  697,  702,  701
 592, 1759, 1760, 1765, 1764,  697,  698,  703,  702
 593, 1760, 1761, 1766, 1765,  698,  699,  704,  703
 594, 1761, 1762, 1767, 1766,  699,  700,  705,  704
 595, 1762, 1214, 1215, 1767,  700,  123,  122,  705
 596, 1363, 1763, 1768, 1364,  628,  701,  706,  627
 597, 1763, 1764, 1769, 1768,  701,  702,  707,  706
 598, 1764, 1765, 1770, 1769,  702,  703,  708,  707
 599, 1765, 1766, 1771, 1770,  703,  704,  709,  708
 600, 1766, 1767, 1772, 1771,  704,  705,  710,  709
 601, 1767, 1215, 1216, 1772,  705,  122,  121,  710
 602, 1364, 1768, 1773, 1365,  627,  706,  711,  626
 603, 1768, 1769, 1774, 1773,  706,  707,  712,  711
 604, 1769, 1770, 1775, 1774,  707,  708,  713,  712
 605, 1770, 1771, 1776, 1775,  708,  709,  714,  713
 606, 1771, 1772, 1777, 1776,  709,  710,  715,  714
 607, 1772, 1216, 1217, 1777,  710,  121,  120,  715
 608, 1365, 1773, 1778, 1366,  626,  711,  716,  625
 609, 1773, 1774, 1779, 1778,  711,  712,  717,  716
 610, 1774, 1775, 1780, 1779,  712,  713,  718,  717
 611, 1775, 1776, 1781, 1780,  713,  714,  719,  718
 612, 1776, 1777, 1782, 1781,  714,  715,  720,  719
 613, 1777, 1217, 1218, 1782,  715,  120,  119,  720
 614, 1366, 1778, 1350, 1324,  625,  716,  364,  267
 615, 1778, 1779, 1349, 1350,  716,  717,  365,  364
 616, 1779, 1780, 1348, 1349,  717,  718,  366,  365
 617, 1780, 1781, 1347, 1348,  718,  719,  367,  366
 618, 1781, 1782, 1346, 1347,  719,  720,  368,  367
 619, 1782, 1218, 1202, 1346,  720,  119,  118,  368
 620,  822,  828, 1447, 1345,   78,   79, 1186, 1185
 621,  828,  829, 1448, 1447,   79,   80, 1187, 1186
 622,  829,  830, 1449, 1448,   80,   81, 1188, 1187
 623,  830,  831, 1450, 1449,   81,   82, 1189, 1188
 624,  831,  832, 1451, 1450,   82,   83, 1190, 1189
 625,  832,  833, 1452, 1451,   83,   84, 1191, 1190
 626,  833,  834, 1453, 1452,   84,   85, 1192, 1191
 627,  834,  835, 1454, 1453,   85,   86, 1193, 1192
 628,  835,  836, 1455, 1454,   86,   87, 1194, 1193
 629,  836,  837, 1456, 1455,   87,   88, 1195, 1194
 630,  837,  838, 1457, 1456,   88,   89, 1196, 1195
 631,  838,  839, 1458, 1457,   89,   90, 1197, 1196
 632,  839,  840, 1459, 1458,   90,   91, 1198, 1197
 633,  840,  841, 1460, 1459,   91,   92, 1199, 1198
 634,  841,  842, 1461, 1460,   92,   93, 1200, 1199
 635,  842,  843, 1462, 1461,   93,   94, 1201, 1200
 636,  843,  176, 1219, 1462,   94,    9,  174, 1201
 637,  821,  844, 1463, 1344,  822,  828, 1447, 1345
 638,  844,  845, 1464, 1463,  828,  829, 1448, 1447
 639,  845,  846, 1465, 1464,  829,  830, 1449, 1448
 640,  846,  847, 1466, 1465,  830,  831, 1450, 1449
 641,  847,  848, 1467, 1466,  831,  832, 1451, 1450
 642,  848,  849, 1468, 1467,  832,  833, 1452, 1451
 643,  849,  850, 1469, 1468,  833,  834, 1453, 1452
 644,  850,  851, 1470, 1469,  834,  835, 1454, 1453
 645,  851,  852, 1471, 1470,  835,  836, 1455, 1454
 646,  852,  853, 1472, 1471,  836,  837, 1456, 1455
 647,  853,  854, 1473, 1472,  837,  838, 1457, 1456
 648,  854,  855, 1474, 1473,  838,  839, 1458, 1457
 649,  855,  856, 1475, 1474,  839,  840, 1459, 1458
 650,  856,  857, 1476, 1475,  840,  841, 1460, 1459
 651,  857,  858, 1477, 1476,  841,  842, 1461, 1460
 652,  858,  859, 1478, 1477,  842,  843, 1462, 1461
 653,  859,  177, 1220, 1478,  843,  176, 1219, 1462
 654,  820,  860, 1479, 1343,  821,  844, 1463, 1344
 655,  860,  861, 1480, 1479,  844,  845, 1464, 1463
 656,  861,  862, 1481, 1480,  845,  846, 1465, 1464
 657,  862,  863, 1482, 1481,  846,  847, 1466, 1465
 658,  863,  864, 1483, 1482,  847,  848, 1467, 1466
 659,  864,  865, 1484, 1483,  848,  849, 1468, 1467
 660,  865,  866, 1485, 1484,  849,  850, 1469, 1468
 661,  866,  867, 1486, 1485,  850,  851, 1470, 1469
 662,  867,  868, 1487, 1486,  851,  852, 1471, 1470
 663,  868,  869, 1488, 1487,  852,  853, 1472, 1471
 664,  869,  870, 1489, 1488,  853,  854, 1473, 1472
 665,  870,  871, 1490, 1489,  854,  855, 1474, 1473
 666,  871,  872, 1491, 1490,  855,  856, 1475, 1474
 667,  872,  873, 1492, 1491,  856,  857, 1476, 1475
 668,  873,  874, 1493, 1492,  857,  858, 1477, 1476
 669,  874,  875, 1494, 1493,  858,  859, 1478, 1477
 670,  875,  178, 1221, 1494,  859,  177, 1220, 1478
 671,  819,  876, 1495, 1342,  820,  860, 1479, 1343
 672,  876,  877, 1496, 1495,  860,  861, 1480, 1479
 673,  877,  878, 1497, 1496,  861,  862, 1481, 1480
 674,  878,  879, 1498, 1497,  862,  863, 1482, 1481
 675,  879,  880, 1499, 1498,  863,  864, 1483, 1482
 676,  880,  881, 1500, 1499,  864,  865, 1484, 1483
 677,  881,  882, 1501, 1500,  865,  866, 1485, 1484
 678,  882,  883, 1502, 1501,  866,  867, 1486, 1485
 679,  883,  884, 1503, 1502,  867,  868, 1487, 1486
 680,  884,  885, 1504, 1503,  868,  869, 1488, 1487
 681,  885,  886, 1505, 1504,  869,  870, 1489, 1488
 682,  886,  887, 1506, 1505,  870,  871, 1490, 1489
 683,  887,  888, 1507, 1506,  871,  872, 1491, 1490
 684,  888,  889, 1508, 1507,  872,  873, 1492, 1491
 685,  889,  890, 1509, 1508,  873,  874, 1493, 1492
 686,  890,  891, 1510, 1509,  874,  875, 1494, 1493
 687,  891,  179, 1222, 1510,  875,  178, 1221, 1494
 688,  818,  892, 1511, 1341,  819,  876, 1495, 1342
 689,  892,  893, 1512, 1511,  876,  877, 1496, 1495
 690,  893,  894, 1513, 1512,  877,  878, 1497, 1496
 691,  894,  895, 1514, 1513,  878,  879, 1498, 1497
 692,  895,  896, 1515, 1514,  879,  880, 1499, 1498
 693,  896,  897, 1516, 1515,  880,  881, 1500, 1499
 694,  897,  898, 1517, 1516,  881,  882, 1501, 1500
 695,  898,  899, 1518, 1517,  882,  883, 1502, 1501
 696,  899,  900, 1519, 1518,  883,  884, 1503, 1502
 697,  900,  901, 1520, 1519,  884,  885, 1504, 1503
 698,  901,  902, 1521, 1520,  885,  886, 1505, 1504
 699,  902,  903, 1522, 1521,  886,  887, 1506, 1505
 700,  903,  904, 1523, 1522,  887,  888, 1507, 1506
 701,  904,  905, 1524, 1523,  888,  889, 1508, 1507
 702,  905,  906, 1525, 1524,  889,  890, 1509, 1508
 703,  906,  907, 1526, 1525,  890,  891, 1510, 1509
 704,  907,  180, 1223, 1526,  891,  179, 1222, 1510
 705,  817,  908, 1527, 1340,  818,  892, 1511, 1341
 706,  908,  909, 1528, 1527,  892,  893, 1512, 1511
 707,  909,  910, 1529, 1528,  893,  894, 1513, 1512
 708,  910,  911, 1530, 1529,  894,  895, 1514, 1513
 709,  911,  912, 1531, 1530,  895,  896, 1515, 1514
 710,  912,  913, 1532, 1531,  896,  897, 1516, 1515
 711,  913,  914, 1533, 1532,  897,  898, 1517, 1516
 712,  914,  915, 1534, 1533,  898,  899, 1518, 1517
 713,  915,  916, 1535, 1534,  899,  900, 1519, 1518
 714,  916,  917, 1536, 1535,  900,  901, 1520, 1519
 715,  917,  918, 1537, 1536,  901,  902, 1521, 1520
 716,  918,  919, 1538, 1537,  902,  903, 1522, 1521
 717,  919,  920, 1539, 1538,  903,  904, 1523, 1522
 718,  920,  921, 1540, 1539,  904,  905, 1524, 1523
 719,  921,  922, 1541, 1540,  905,  906, 1525, 1524
 720,  922,  923, 1542, 1541,  906,  907, 1526, 1525
 721,  923,  181, 1224, 1542,  907,  180, 1223, 1526
 722,  816,  924, 1543, 1339,  817,  908, 1527, 1340
 723,  924,  925, 1544, 1543,  908,  909, 1528, 1527
 724,  925,  926, 1545, 1544,  909,  910, 1529, 1528
 725,  926,  927, 1546, 1545,  910,  911, 1530, 1529
 726,  927,  928, 1547, 1546,  911,  912, 1531, 1530
 727,  928,  929, 1548, 1547,  912,  913, 1532, 1531
 728,  929,  930, 1549, 1548,  913,  914, 1533, 1532
 729,  930,  931, 1550, 1549,  914,  915, 1534, 1533
 730,  931,  932, 1551, 1550,  915,  916, 1535, 1534
 731,  932,  933, 1552, 1551,  916,  917, 1536, 1535
 732,  933,  934, 1553, 1552,  917,  918, 1537, 1536
 733,  934,  935, 1554, 1553,  918,  919, 1538, 1537
 734,  935,  936, 1555, 1554,  919,  920, 1539, 1538
 735,  936,  937, 1556, 1555,  920,  921, 1540, 1539
 736,  937,  938, 1557, 1556,  921,  922, 1541, 1540
 737,  938,  939, 1558, 1557,  922,  923, 1542, 1541
 738,  939,  182, 1225, 1558,  923,  181, 1224, 1542
 739,  815,  940, 1559, 1338,  816,  924, 1543, 1339
 740,  940,  941, 1560, 1559,  924,  925, 1544, 1543
 741,  941,  942, 1561, 1560,  925,  926, 1545, 1544
 742,  942,  943, 1562, 1561,  926,  927, 1546, 1545
 743,  943,  944, 1563, 1562,  927,  928, 1547, 1546
 744,  944,  945, 1564, 1563,  928,  929, 1548, 1547
 745,  945,  946, 1565, 1564,  929,  930, 1549, 1548
 746,  946,  947, 1566, 1565,  930,  931, 1550, 1549
 747,  947,  948, 1567, 1566,  931,  932, 1551, 1550
 748,  948,  949, 1568, 1567,  932,  933, 1552, 1551
 749,  949,  950, 1569, 1568,  933,  934, 1553, 1552
 750,  950,  951, 1570, 1569,  934,  935, 1554, 1553
 751,  951,  952, 1571, 1570,  935,  936, 1555, 1554
 752,  952,  953, 1572, 1571,  936,  937, 1556, 1555
 753,  953,  954, 1573, 1572,  937,  938, 1557, 1556
 754,  954,  955, 1574, 1573,  938,  939, 1558, 1557
 755,  955,  183, 1226, 1574,  939,  182, 1225, 1558
 756,  814,  956, 1575, 1337,  815,  940, 1559, 1338
 757,  956,  957, 1576, 1575,  940,  941, 1560, 1559
 758,  957,  958, 1577, 1576,  941,  942, 1561, 1560
 759,  958,  959, 1578, 1577,  942,  943, 1562, 1561
 760,  959,  960, 1579, 1578,  943,  944, 1563, 1562
 761,  960,  961, 1580, 1579,  944,  945, 1564, 1563
 762,  961,  962, 1581, 1580,  945,  946, 1565, 1564
 763,  962,  963, 1582, 1581,  946,  947, 1566, 1565
 764,  963,  964, 1583, 1582,  947,  948, 1567, 1566
 765,  964,  965, 1584, 1583,  948,  949, 1568, 1567
 766,  965,  966, 1585, 1584,  949,  950, 1569, 1568
 767,  966,  967, 1586, 1585,  950,  951, 1570, 1569
 768,  967,  968, 1587, 1586,  951,  952, 1571, 1570
 769,  968,  969, 1588, 1587,  952,  953, 1572, 1571
 770,  969,  970, 1589, 1588,  953,  954, 1573, 1572
 771,  970,  971, 1590, 1589,  954,  955, 1574, 1573
 772,  971,  184, 1227, 1590,  955,  183, 1226, 1574
 773,  813,  972, 1591, 1336,  814,  956, 1575, 1337
 774,  972,  973, 1592, 1591,  956,  957, 1576, 1575
 775,  973,  974, 1593, 1592,  957,  958, 1577, 1576
 776,  974,  975, 1594, 1593,  958,  959, 1578, 1577
 777,  975,  976, 1595, 1594,  959,  960, 1579, 1578
 778,  976,  977, 1596, 1595,  960,  961, 1580, 1579
 779,  977,  978, 1597, 1596,  961,  962, 1581, 1580
 780,  978,  979, 1598, 1597,  962,  963, 1582, 1581
 781,  979,  980, 1599, 1598,  963,  964, 1583, 1582
 782,  980,  981, 1600, 1599,  964,  965, 1584, 1583
 783,  981,  982, 1601, 1600,  965,  966, 1585, 1584
 784,  982,  983, 1602, 1601,  966,  967, 1586, 1585
 785,  983,  984, 1603, 1602,  967,  968, 1587, 1586
 786,  984,  985, 1604, 1603,  968,  969, 1588, 1587
 787,  985,  986, 1605, 1604,  969,  970, 1589, 1588
 788,  986,  987, 1606, 1605,  970,  971, 1590, 1589
 789,  987,  185, 1228, 1606,  971,  184, 1227, 1590
 790,  812,  988, 1607, 1335,  813,  972, 1591, 1336
 791,  988,  989, 1608, 1607,  972,  973, 1592, 1591
 792,  989,  990, 1609, 1608,  973,  974, 1593, 1592
 793,  990,  991, 1610, 1609,  974,  975, 1594, 1593
 794,  991,  992, 1611, 1610,  975,  976, 1595, 1594
 795,  992,  993, 1612, 1611,  976,  977, 1596, 1595
 796,  993,  994, 1613, 1612,  977,  978, 1597, 1596
 797,  994,  995, 1614, 1613,  978,  979, 1598, 1597
 798,  995,  996, 1615, 1614,  979,  980, 1599, 1598
 799,  996,  997, 1616, 1615,  980,  981, 1600, 1599
 800,  997,  998, 1617, 1616,  981,  982, 1601, 1600
 801,  998,  999, 1618, 1617,  982,  983, 1602, 1601
 802,  999, 1000, 1619, 1618,  983,  984, 1603, 1602
 803, 1000, 1001, 1620, 1619,  984,  985, 1604, 1603
 804, 1001, 1002, 1621, 1620,  985,  986, 1605, 1604
 805, 1002, 1003, 1622, 1621,  986,  987, 1606, 1605
 806, 1003,  186, 1229, 1622,  987,  185, 1228, 1606
 807,  811, 1004, 1623, 1334,  812,  988, 1607, 1335
 808, 1004, 1005, 1624, 1623,  988,  989, 1608, 1607
 809, 1005, 1006, 1625, 1624,  989,  990, 1609, 1608
 810, 1006, 1007, 1626, 1625,  990,  991, 1610, 1609
 811, 1007, 1008, 1627, 1626,  991,  992, 1611, 1610
 812, 1008, 1009, 1628, 1627,  992,  993, 1612, 1611
 813, 1009, 1010, 1629, 1628,  993,  994, 1613, 1612
 814, 1010, 1011, 1630, 1629,  994,  995, 1614, 1613
 815, 1011, 1012, 1631, 1630,  995,  996, 1615, 1614
 816, 1012, 1013, 1632, 1631,  996,  997, 1616, 1615
 817, 1013, 1014, 1633, 1632,  997,  998, 1617, 1616
 818, 1014, 1015, 1634, 1633,  998,  999, 1618, 1617
 819, 1015, 1016, 1635, 1634,  999, 1000, 1619, 1618
 820, 1016, 1017, 1636, 1635, 1000, 1001, 1620, 1619
 821, 1017, 1018, 1637, 1636, 1001, 1002, 1621, 1620
 822, 1018, 1019, 1638, 1637, 1002, 1003, 1622, 1621
 823, 1019,  187, 1230, 1638, 1003,  186, 1229, 1622
 824,  810, 1020, 1639, 1333,  811, 1004, 1623, 1334
 825, 1020, 1021, 1640, 1639, 1004, 1005, 1624, 1623
 826, 1021, 1022, 1641, 1640, 1005, 1006, 1625, 1624
 827, 1022, 1023, 1642, 1641, 1006, 1007, 1626, 1625
 828, 1023, 1024, 1643, 1642, 1007, 1008, 1627, 1626
 829, 1024, 1025, 1644, 1643, 1008, 1009, 1628, 1627
 830, 1025, 1026, 1645, 1644, 1009, 1010, 1629, 1628
 831, 1026, 1027, 1646, 1645, 1010, 1011, 1630, 1629
 832, 1027, 1028, 1647, 1646, 1011, 1012, 1631, 1630
 833, 1028, 1029, 1648, 1647, 1012, 1013, 1632, 1631
 834, 1029, 1030, 1649, 1648, 1013, 1014, 1633, 1632
 835, 1030, 1031, 1650, 1649, 1014, 1015, 1634, 1633
 836, 1031, 1032, 1651, 1650, 1015, 1016, 1635, 1634
 837, 1032, 1033, 1652, 1651, 1016, 1017, 1636, 1635
 838, 1033, 1034, 1653, 1652, 1017, 1018, 1637, 1636
 839, 1034, 1035, 1654, 1653, 1018, 1019, 1638, 1637
 840, 1035,  188, 1231, 1654, 1019,  187, 1230, 1638
 841,  809, 1036, 1655, 1332,  810, 1020, 1639, 1333
 842, 1036, 1037, 1656, 1655, 1020, 1021, 1640, 1639
 843, 1037, 1038, 1657, 1656, 1021, 1022, 1641, 1640
 844, 1038, 1039, 1658, 1657, 1022, 1023, 1642, 1641
 845, 1039, 1040, 1659, 1658, 1023, 1024, 1643, 1642
 846, 1040, 1041, 1660, 1659, 1024, 1025, 1644, 1643
 847, 1041, 1042, 1661, 1660, 1025, 1026, 1645, 1644
 848, 1042, 1043, 1662, 1661, 1026, 1027, 1646, 1645
 849, 1043, 1044, 1663, 1662, 1027, 1028, 1647, 1646
 850, 1044, 1045, 1664, 1663, 1028, 1029, 1648, 1647
 851, 1045, 1046, 1665, 1664, 1029, 1030, 1649, 1648
 852, 1046, 1047, 1666, 1665, 1030, 1031, 1650, 1649
 853, 1047, 1048, 1667, 1666, 1031, 1032, 1651, 1650
 854, 1048, 1049, 1668, 1667, 1032, 1033, 1652, 1651
 855, 1049, 1050, 1669, 1668, 1033, 1034, 1653, 1652
 856, 1050, 1051, 1670, 1669, 1034, 1035, 1654, 1653
 857, 1051,  189, 1232, 1670, 1035,  188, 1231, 1654
 858,  808, 1052, 1671, 1331,  809, 1036, 1655, 1332
 859, 1052, 1053, 1672, 1671, 1036, 1037, 1656, 1655
 860, 1053, 1054, 1673, 1672, 1037, 1038, 1657, 1656
 861, 1054, 1055, 1674, 1673, 1038, 1039, 1658, 1657
 862, 1055, 1056, 1675, 1674, 1039, 1040, 1659, 1658
 863, 1056, 1057, 1676, 1675, 1040, 1041, 1660, 1659
 864, 1057, 1058, 1677, 1676, 1041, 1042, 1661, 1660
 865, 1058, 1059, 1678, 1677, 1042, 1043, 1662, 1661
 866, 1059, 1060, 1679, 1678, 1043, 1044, 1663, 1662
 867, 1060, 1061, 1680, 1679, 1044, 1045, 1664, 1663
 868, 1061, 1062, 1681, 1680, 1045, 1046, 1665, 1664
 869, 1062, 1063, 1682, 1681, 1046, 1047, 1666, 1665
 870, 1063, 1064, 1683, 1682, 1047, 1048, 1667, 1666
 871, 1064, 1065, 1684, 1683, 1048, 1049, 1668, 1667
 872, 1065, 1066, 1685, 1684, 1049, 1050, 1669, 1668
 873, 1066, 1067, 1686, 1685, 1050, 1051, 1670, 1669
 874, 1067,  190, 1233, 1686, 1051,  189, 1232, 1670
 875,  807, 1068, 1687, 1330,  808, 1052, 1671, 1331
 876, 1068, 1069, 1688, 1687, 1052, 1053, 1672, 1671
 877, 1069, 1070, 1689, 1688, 1053, 1054, 1673, 1672
 878, 1070, 1071, 1690, 1689, 1054, 1055, 1674, 1673
 879, 1071, 1072, 1691, 1690, 1055, 1056, 1675, 1674
 880, 1072, 1073, 1692, 1691, 1056, 1057, 1676, 1675
 881, 1073, 1074, 1693, 1692, 1057, 1058, 1677, 1676
 882, 1074, 1075, 1694, 1693, 1058, 1059, 1678, 1677
 883, 1075, 1076, 1695, 1694, 1059, 1060, 1679, 1678
 884, 1076, 1077, 1696, 1695, 1060, 1061, 1680, 1679
 885, 1077, 1078, 1697, 1696, 1061, 1062, 1681, 1680
 886, 1078, 1079, 1698, 1697, 1062, 1063, 1682, 1681
 887, 1079, 1080, 1699, 1698, 1063, 1064, 1683, 1682
 888, 1080, 1081, 1700, 1699, 1064, 1065, 1684, 1683
 889, 1081, 1082, 1701, 1700, 1065, 1066, 1685, 1684
 890, 1082, 1083, 1702, 1701, 1066, 1067, 1686, 1685
 891, 1083,  191, 1234, 1702, 1067,  190, 1233, 1686
 892,  726, 1084, 1366, 1324,  807, 1068, 1687, 1330
 893, 1084, 1085, 1365, 1366, 1068, 1069, 1688, 1687
 894, 1085, 1086, 1364, 1365, 1069, 1070, 1689, 1688
 895, 1086, 1087, 1363, 1364, 1070, 1071, 1690, 1689
 896, 1087, 1088, 1362, 1363, 1071, 1072, 1691, 1690
 897, 1088, 1089, 1361, 1362, 1072, 1073, 1692, 1691
 898, 1089, 1090, 1360, 1361, 1073, 1074, 1693, 1692
 899, 1090, 1091, 1359, 1360, 1074, 1075, 1694, 1693
 900, 1091, 1092, 1358, 1359, 1075, 1076, 1695, 1694
 901, 1092, 1093, 1357, 1358, 1076, 1077, 1696, 1695
 902, 1093, 1094, 1356, 1357, 1077, 1078, 1697, 1696
 903, 1094, 1095, 1355, 1356, 1078, 1079, 1698, 1697
 904, 1095, 1096, 1354, 1355, 1079, 1080, 1699, 1698
 905, 1096, 1097, 1353, 1354, 1080, 1081, 1700, 1699
 906, 1097, 1098, 1352, 1353, 1081, 1082, 1701, 1700
 907, 1098, 1099, 1351, 1352, 1082, 1083, 1702, 1701
 908, 1099,  192, 1235, 1351, 1083,  191, 1234, 1702
 909, 1202, 1218, 1782, 1346,  135,  136, 1100,  823
 910, 1218, 1217, 1777, 1782,  136,  137, 1101, 1100
 911, 1217, 1216, 1772, 1777,  137,  138, 1102, 1101
 912, 1216, 1215, 1767, 1772,  138,  139, 1103, 1102
 913, 1215, 1214, 1762, 1767,  139,  140, 1104, 1103
 914, 1214, 1213, 1757, 1762,  140,  141, 1105, 1104
 915, 1213, 1212, 1752, 1757,  141,  142, 1106, 1105
 916, 1212, 1211, 1747, 1752,  142,  143, 1107, 1106
 917, 1211, 1210, 1742, 1747,  143,  144, 1108, 1107
 918, 1210, 1209, 1737, 1742,  144,  145, 1109, 1108
 919, 1209, 1208, 1732, 1737,  145,  146, 1110, 1109
 920, 1208, 1207, 1727, 1732,  146,  147, 1111, 1110
 921, 1207, 1206, 1722, 1727,  147,  148, 1112, 1111
 922, 1206, 1205, 1717, 1722,  148,  149, 1113, 1112
 923, 1205, 1204, 1712, 1717,  149,  150, 1114, 1113
 924, 1204, 1203, 1707, 1712,  150,  151, 1115, 1114
 925, 1203,  175, 1240, 1707,  151,   10,  197, 1115
 926, 1346, 1782, 1781, 1347,  823, 1100, 1116,  824
 927, 1782, 1777, 1776, 1781, 1100, 1101, 1117, 1116
 928, 1777, 1772, 1771, 1776, 1101, 1102, 1118, 1117
 929, 1772, 1767, 1766, 1771, 1102, 1103, 1119, 1118
 930, 1767, 1762, 1761, 1766, 1103, 1104, 1120, 1119
 931, 1762, 1757, 1756, 1761, 1104, 1105, 1121, 1120
 932, 1757, 1752, 1751, 1756, 1105, 1106, 1122, 1121
 933, 1752, 1747, 1746, 1751, 1106, 1107, 1123, 1122
 934, 1747, 1742, 1741, 1746, 1107, 1108, 1124, 1123
 935, 1742, 1737, 1736, 1741, 1108, 1109, 1125, 1124
 936, 1737, 1732, 1731, 1736, 1109, 1110, 1126, 1125
 937, 1732, 1727, 1726, 1731, 1110, 1111, 1127, 1126
 938, 1727, 1722, 1721, 1726, 1111, 1112, 1128, 1127
 939, 1722, 1717, 1716, 1721, 1112, 1113, 1129, 1128
 940, 1717, 1712, 1711, 1716, 1113, 1114, 1130, 1129
 941, 1712, 1707, 1706, 1711, 1114, 1115, 1131, 1130
 942, 1707, 1240, 1239, 1706, 1115,  197,  196, 1131
 943, 1347, 1781, 1780, 1348,  824, 1116, 1132,  825
 944, 1781, 1776, 1775, 1780, 1116, 1117, 1133, 1132
 945, 1776, 1771, 1770, 1775, 1117, 1118, 1134, 1133
 946, 1771, 1766, 1765, 1770, 1118, 1119, 1135, 1134
 947, 1766, 1761, 1760, 1765, 1119, 1120, 1136, 1135
 948, 1761, 1756, 1755, 1760, 1120, 1121, 1137, 1136
 949, 1756, 1751, 1750, 1755, 1121, 1122, 1138, 1137
 950, 1751, 1746, 1745, 1750, 1122, 1123, 1139, 1138
 951, 1746, 1741, 1740, 1745, 1123, 1124, 1140, 1139
 952, 1741, 1736, 1735, 1740, 1124, 1125, 1141, 1140
 953, 1736, 1731, 1730, 1735, 1125, 1126, 1142, 1141
 954, 1731, 1726, 1725, 1730, 1126, 1127, 1143, 1142
 955, 1726, 1721, 1720, 1725, 1127, 1128, 1144, 1143
 956, 1721, 1716, 1715, 1720, 1128, 1129, 1145, 1144
 957, 1716, 1711, 1710, 1715, 1129, 1130, 1146, 1145
 958, 1711, 1706, 1705, 1710, 1130, 1131, 1147, 1146
 959, 1706, 1239, 1238, 1705, 1131,  196,  195, 1147
 960, 1348, 1780, 1779, 1349,  825, 1132, 1148,  826
 961, 1780, 1775, 1774, 1779, 1132, 1133, 1149, 1148
 962, 1775, 1770, 1769, 1774, 1133, 1134, 1150, 1149
 963, 1770, 1765, 1764, 1769, 1134, 1135, 1151, 1150
 964, 1765, 1760, 1759, 1764, 1135, 1136, 1152, 1151
 965, 1760, 1755, 1754, 1759, 1136, 1137, 1153, 1152
 966, 1755, 1750, 1749, 1754, 1137, 1138, 1154, 1153
 967, 1750, 1745, 1744, 1749, 1138, 1139, 1155, 1154
 968, 1745, 1740, 1739, 1744, 1139, 1140, 1156, 1155
 969, 1740, 1735, 1734, 1739, 1140, 1141, 1157, 1156
 970, 1735, 1730, 1729, 1734, 1141, 1142, 1158, 1157
 971, 1730, 1725, 1724, 1729, 1142, 1143, 1159, 1158
 972, 1725, 1720, 1719, 1724, 1143, 1144, 1160, 1159
 973, 1720, 1715, 1714, 1719, 1144, 1145, 1161, 1160
 974, 1715, 1710, 1709, 1714, 1145, 1146, 1162, 1161
 975, 1710, 1705, 1704, 1709, 1146, 1147, 1163, 1162
 976, 1705, 1238, 1237, 1704, 1147,  195,  194, 1163
 977, 1349, 1779, 1778, 1350,  826, 1148, 1164,  827
 978, 1779, 1774, 1773, 1778, 1148, 1149, 1165, 1164
 979, 1774, 1769, 1768, 1773, 1149, 1150, 1166, 1165
 980, 1769, 1764, 1763, 1768, 1150, 1151, 1167, 1166
 981, 1764, 1759, 1758, 1763, 1151, 1152, 1168, 1167
 982, 1759, 1754, 1753, 1758, 1152, 1153, 1169, 1168
 983, 1754, 1749, 1748, 1753, 1153, 1154, 1170, 1169
 984, 1749, 1744, 1743, 1748, 1154, 1155, 1171, 1170
 985, 1744, 1739, 1738, 1743, 1155, 1156, 1172, 1171
 986, 1739, 1734, 1733, 1738, 1156, 1157, 1173, 1172
 987, 1734, 1729, 1728, 1733, 1157, 1158, 1174, 1173
 988, 1729, 1724, 1723, 1728, 1158, 1159, 1175, 1174
 989, 1724, 1719, 1718, 1723, 1159, 1160, 1176, 1175
 990, 1719, 1714, 1713, 1718, 1160, 1161, 1177, 1176
 991, 1714, 1709, 1708, 1713, 1161, 1162, 1178, 1177
 992, 1709, 1704, 1703, 1708, 1162, 1163, 1179, 1178
 993, 1704, 1237, 1236, 1703, 1163,  194,  193, 1179
 994, 1350, 1778, 1366, 1324,  827, 1164, 1084,  726
 995, 1778, 1773, 1365, 1366, 1164, 1165, 1085, 1084
 996, 1773, 1768, 1364, 1365, 1165, 1166, 1086, 1085
 997, 1768, 1763, 1363, 1364, 1166, 1167, 1087, 1086
 998, 1763, 1758, 1362, 1363, 1167, 1168, 1088, 1087
 999, 1758, 1753, 1361, 1362, 1168, 1169, 1089, 1088
1000, 1753, 1748, 1360, 1361, 1169, 1170, 1090, 1089
1001, 1748, 1743, 1359, 1360, 1170, 1171, 1091, 1090
1002, 1743, 1738, 1358, 1359, 1171, 1172, 1092, 1091
1003, 1738, 1733, 1357, 1358, 1172, 1173, 1093, 1092
1004, 1733, 1728, 1356, 1357, 1173, 1174, 1094, 1093
1005, 1728, 1723, 1355, 1356, 1174, 1175, 1095, 1094
1006, 1723, 1718, 1354, 1355, 1175, 1176, 1096, 1095
1007, 1718, 1713, 1353, 1354, 1176, 1177, 1097, 1096
1008, 1713, 1708, 1352, 1353, 1177, 1178, 1098, 1097
1009, 1708, 1703, 1351, 1352, 1178, 1179, 1099, 1098
1010, 1703, 1236, 1235, 1351, 1179,  193,  192, 1099
1011,  227, 1258, 1783, 1252,   11,  198, 1241,  221
1012, 1258, 1259, 1784, 1783,  198,  199, 1242, 1241
1013, 1259, 1260, 1785, 1784,  199,  200, 1243, 1242
1014, 1260, 1261, 1786, 1785,  200,  201, 1244, 1243
1015, 1261, 1262, 1787, 1786,  201,  202, 1245, 1244
1016, 1262, 1263, 1788, 1787,  202,  203, 1246, 1245
1017, 1263, 1264, 1789, 1788,  203,  204, 1247, 1246
1018, 1264, 1265, 1790, 1789,  204,  205, 1248, 1247
1019, 1265, 1266, 1791, 1790,  205,  206, 1249, 1248
1020, 1266, 1267, 1792, 1791,  206,  207, 1250, 1249
1021, 1267, 1268, 1793, 1792,  207,  208, 1251, 1250
1022, 1268,  231, 1255, 1793,  208,   12,  209, 1251
1023, 1252, 1783, 1291,  222,  221, 1241,  220,   14
1024, 1783, 1784, 1292, 1291, 1241, 1242,  219,  220
1025, 1784, 1785, 1293, 1292, 1242, 1243,  218,  219
1026, 1785, 1786, 1294, 1293, 1243, 1244,  217,  218
1027, 1786, 1787, 1295, 1294, 1244, 1245,  216,  217
1028, 1787, 1788, 1296, 1295, 1245, 1246,  215,  216
1029, 1788, 1789, 1297, 1296, 1246, 1247,  214,  215
1030, 1789, 1790, 1298, 1297, 1247, 1248,  213,  214
1031, 1790, 1791, 1299, 1298, 1248, 1249,  212,  213
1032, 1791, 1792, 1300, 1299, 1249, 1250,  211,  212
1033, 1792, 1793, 1301, 1300, 1250, 1251,  210,  211
1034, 1793, 1255,  230, 1301, 1251,  209,   13,  210
1035,  226, 1269, 1794, 1253,  227, 1258, 1783, 1252
1036, 1269, 1270, 1795, 1794, 1258, 1259, 1784, 1783
1037, 1270, 1271, 1796, 1795, 1259, 1260, 1785, 1784
1038, 1271, 1272, 1797, 1796, 1260, 1261, 1786, 1785
1039, 1272, 1273, 1798, 1797, 1261, 1262, 1787, 1786
1040, 1273, 1274, 1799, 1798, 1262, 1263, 1788, 1787
1041, 1274, 1275, 1800, 1799, 1263, 1264, 1789, 1788
1042, 1275, 1276, 1801, 1800, 1264, 1265, 1790, 1789
1043, 1276, 1277, 1802, 1801, 1265, 1266, 1791, 1790
1044, 1277, 1278, 1803, 1802, 1266, 1267, 1792, 1791
1045, 1278, 1279, 1804, 1803, 1267, 1268, 1793, 1792
1046, 1279,  232, 1256, 1804, 1268,  231, 1255, 1793
1047, 1253, 1794, 1302,  223, 1252, 1783, 1291,  222
1048, 1794, 1795, 1303, 1302, 1783, 1784, 1292, 1291
1049, 1795, 1796, 1304, 1303, 1784, 1785, 1293, 1292
1050, 1796, 1797, 1305, 1304, 1785, 1786, 1294, 1293
1051, 1797, 1798, 1306, 1305, 1786, 1787, 1295, 1294
1052, 1798, 1799, 1307, 1306, 1787, 1788, 1296, 1295
1053, 1799, 1800, 1308, 1307, 1788, 1789, 1297, 1296
1054, 1800, 1801, 1309, 1308, 1789, 1790, 1298, 1297
1055, 1801, 1802, 1310, 1309, 1790, 1791, 1299, 1298
1056, 1802, 1803, 1311, 1310, 1791, 1792, 1300, 1299
1057, 1803, 1804, 1312, 1311, 1792, 1793, 1301, 1300
1058, 1804, 1256,  229, 1312, 1793, 1255,  230, 1301
1059,  225, 1280, 1805, 1254,  226, 1269, 1794, 1253
1060, 1280, 1281, 1806, 1805, 1269, 1270, 1795, 1794
1061, 1281, 1282, 1807, 1806, 1270, 1271, 1796, 1795
1062, 1282, 1283, 1808, 1807, 1271, 1272, 1797, 1796
1063, 1283, 1284, 1809, 1808, 1272, 1273, 1798, 1797
1064, 1284, 1285, 1810, 1809, 1273, 1274, 1799, 1798
1065, 1285, 1286, 1811, 1810, 1274, 1275, 1800, 1799
1066, 1286, 1287, 1812, 1811, 1275, 1276, 1801, 1800
1067, 1287, 1288, 1813, 1812, 1276, 1277, 1802, 1801
1068, 1288, 1289, 1814, 1813, 1277, 1278, 1803, 1802
1069, 1289, 1290, 1815, 1814, 1278, 1279, 1804, 1803
1070, 1290,  233, 1257, 1815, 1279,  232, 1256, 1804
1071, 1254, 1805, 1313,  224, 1253, 1794, 1302,  223
1072, 1805, 1806, 1314, 1313, 1794, 1795, 1303, 1302
1073, 1806, 1807, 1315, 1314, 1795, 1796, 1304, 1303
1074, 1807, 1808, 1316, 1315, 1796, 1797, 1305, 1304
1075, 1808, 1809, 1317, 1316, 1797, 1798, 1306, 1305
1076, 1809, 1810, 1318, 1317, 1798, 1799, 1307, 1306
1077, 1810, 1811, 1319, 1318, 1799, 1800, 1308, 1307
1078, 1811, 1812, 1320, 1319, 1800, 1801, 1309, 1308
1079, 1812, 1813, 1321, 1320, 1801, 1802, 1310, 1309
1080, 1813, 1814, 1322, 1321, 1802, 1803, 1311, 1310
1081, 1814, 1815, 1323, 1322, 1803, 1804, 1312, 1311
1082, 1815, 1257,  228, 1323, 1804, 1256,  229, 1312
1083,    6,   71,  261,  117,  225, 1280, 1805, 1254
1084,   71,   70,  260,  261, 1280, 1281, 1806, 1805
1085,   70,   69,  259,  260, 1281, 1282, 1807, 1806
1086,   69,   68,  258,  259, 1282, 1283, 1808, 1807
1087,   68,   67,  257,  258, 1283, 1284, 1809, 1808
1088,   67,   66,  256,  257, 1284, 1285, 1810, 1809
1089,   66,   65,  255,  256, 1285, 1286, 1811, 1810
1090,   65,   64,  254,  255, 1286, 1287, 1812, 1811
1091,   64,   63,  253,  254, 1287, 1288, 1813, 1812
1092,   63,   62,  252,  253, 1288, 1289, 1814, 1813
1093,   62,   61,  251,  252, 1289, 1290, 1815, 1814
1094,   61,    2,   32,  251, 1290,  233, 1257, 1815
1095,  117,  261,   43,    5, 1254, 1805, 1313,  224
1096,  261,  260,   42,   43, 1805, 1806, 1314, 1313
1097,  260,  259,   41,   42, 1806, 1807, 1315, 1314
1098,  259,  258,   40,   41, 1807, 1808, 1316, 1315
1099,  258,  257,   39,   40, 1808, 1809, 1317, 1316
1100,  257,  256,   38,   39, 1809, 1810, 1318, 1317
1101,  256,  255,   37,   38, 1810, 1811, 1319, 1318
1102,  255,  254,   36,   37, 1811, 1812, 1320, 1319
1103,  254,  253,   35,   36, 1812, 1813, 1321, 1320
1104,  253,  252,   34,   35, 1813, 1814, 1322, 1321
1105,  252,  251,   33,   34, 1814, 1815, 1323, 1322
1106,  251,   32,    1,   33, 1815, 1257,  228, 1323
*Nset, nset=_PICKEDSET4, internal, generate
    1,  1815,     1
*Elset, elset=_PICKEDSET4, internal, generate
    1,  1106,     1
** Section: Section-1-_PICKEDSET4
*Solid Section, elset=_PICKEDSET4, material=MATERIAL-1
,
*End Part
**  
**
** ASSEMBLY
**
*Assembly, name=Assembly
**  
*Instance, name=PLATE-1, part=PLATE
*End Instance
**  
*Nset, nset=FIXEDNODES1, instance=PLATE-1
    1,    2,    3,    4,   12,   13,   15,   16,   17,   18,   19,   20,   21,   22,   23,   24
   25,   26,   27,   28,   29,   30,   31,   32,   44,   45,   46,   47,   48,   49,   50,   51
   52,   53,   54,   55,   56,   57,   58,   59,   60,   72,  209,  228,  229,  230,  231,  232
  233,  234,  235,  236,  237,  238,  239,  240,  241,  242,  243,  244,  245,  246,  247,  248
  249,  250, 1255, 1256, 1257
*Elset, elset=FIXEDNODES1, instance=PLATE-1
    1,    7,   13,   14,   15,   16,   17,   18,   19,   20,   21,   22,   23,   24,   25,   26
   27,   28,   29,  115,  116,  117,  118,  119,  120,  121,  122,  123,  124,  125,  126,  127
  128,  129,  130,  131, 1022, 1034, 1046, 1058, 1070, 1082, 1094, 1106
*Nset, nset=FIXEDNODES2, instance=PLATE-1
    5,    6,    8,   10,   11,   14,  117,  118,  119,  120,  121,  122,  123,  124,  125,  126
  127,  128,  129,  130,  131,  132,  133,  134,  135,  136,  137,  138,  139,  140,  141,  142
  143,  144,  145,  146,  147,  148,  149,  150,  151,  175,  221,  222,  223,  224,  225,  226
  227, 1202, 1203, 1204, 1205, 1206, 1207, 1208, 1209, 1210, 1211, 1212, 1213, 1214, 1215, 1216
 1217, 1218, 1252, 1253, 1254
*Elset, elset=FIXEDNODES2, instance=PLATE-1
  222,  223,  523,  529,  535,  541,  547,  553,  559,  565,  571,  577,  583,  589,  595,  601
  607,  613,  619,  909,  910,  911,  912,  913,  914,  915,  916,  917,  918,  919,  920,  921
  922,  923,  924,  925, 1011, 1023, 1035, 1047, 1059, 1071, 1083, 1095
*Nset, nset=FIXEDNODES3, instance=PLATE-1
    1,    4,    5,    7,    8,   13,   14,   15,   16,   17,   18,   19,   20,   21,   22,   23
   24,   25,   26,   27,   28,   29,   30,   31,   33,   34,   35,   36,   37,   38,   39,   40
   41,   42,   43,   95,   96,   97,   98,   99,  100,  101,  102,  103,  104,  105,  106,  107
  108,  109,  110,  111,  112,  113,  114,  115,  116,  118,  119,  120,  121,  122,  123,  124
  125,  126,  127,  128,  129,  130,  131,  132,  133,  134,  152,  153,  154,  155,  156,  157
  158,  159,  160,  161,  162,  163,  164,  165,  166,  167,  168,  169,  170,  171,  172,  173
  210,  211,  212,  213,  214,  215,  216,  217,  218,  219,  220,  222,  223,  224,  228,  229
  230,  262,  263,  264,  265,  266,  267,  268,  269,  270,  271,  272,  273,  274,  275,  276
  277,  278,  279,  280,  281,  282,  283,  284,  285,  286,  287,  288,  289,  290,  291,  292
  293,  294,  295,  296,  297,  298,  299,  300,  301,  302,  303,  304,  305,  306,  307,  308
  309,  310,  311,  312,  313,  314,  315,  316,  317,  318,  319,  320,  321,  322,  323,  324
  325,  326,  327,  328,  329,  330,  331,  332,  333,  334,  335,  336,  337,  338,  339,  340
  341,  342,  343,  344,  345,  346,  347,  348,  349,  350,  351,  352,  353,  354,  355,  356
  357,  358,  359,  360,  361,  362,  363,  364,  365,  366,  367,  368,  369,  370,  371,  372
  373,  374,  375,  376,  377,  378,  379,  380,  381,  382,  383,  384,  385,  386,  387,  388
  389,  390,  391,  392,  393,  394,  395,  396,  397,  398,  399,  400,  401,  402,  403,  404
  405,  406,  407,  408,  409,  410,  411,  412,  413,  414,  415,  416,  417,  418,  419,  420
  421,  422,  423,  424,  425,  426,  427,  428,  429,  430,  431,  432,  433,  434,  435,  436
  437,  438,  439,  440,  441,  442,  443,  444,  445,  446,  447,  448,  449,  450,  451,  452
  453,  454,  455,  456,  457,  458,  459,  460,  461,  462,  463,  464,  465,  466,  467,  468
  469,  470,  471,  472,  473,  474,  475,  476,  477,  478,  479,  480,  481,  482,  483,  484
  485,  486,  487,  488,  489,  490,  491,  492,  493,  494,  495,  496,  497,  498,  499,  500
  501,  502,  503,  504,  505,  506,  507,  508,  509,  510,  511,  512,  513,  514,  515,  516
  517,  518,  519,  520,  521,  522,  523,  524,  525,  526,  527,  528,  529,  530,  531,  532
  533,  534,  535,  536,  537,  538,  539,  540,  541,  542,  543,  544,  545,  546,  547,  548
  549,  550,  551,  552,  553,  554,  555,  556,  557,  558,  559,  560,  561,  562,  563,  564
  565,  566,  567,  568,  569,  570,  571,  572,  573,  574,  575,  576,  577,  578,  579,  580
  581,  582,  583,  584,  585,  586,  587,  588,  589,  590,  591,  592,  593,  594,  595,  596
  597,  598,  599,  600,  601,  602,  603,  604,  605,  606,  607,  608,  609,  610,  611,  612
  613,  614,  615,  616,  617,  618,  619,  620,  621,  622,  623,  624,  625,  626,  627,  628
  629,  630,  631,  632,  633,  634,  635,  636,  637,  638,  639,  640,  641,  642,  643,  644
  645,  646,  647,  648,  649,  650,  651,  652,  653,  654,  655,  656,  657,  658,  659,  660
  661,  662,  663,  664,  665,  666,  667,  668,  669,  670,  671,  672,  673,  674,  675,  676
  677,  678,  679,  680,  681,  682,  683,  684,  685,  686,  687,  688,  689,  690,  691,  692
  693,  694,  695,  696,  697,  698,  699,  700,  701,  702,  703,  704,  705,  706,  707,  708
  709,  710,  711,  712,  713,  714,  715,  716,  717,  718,  719,  720, 1291, 1292, 1293, 1294
 1295, 1296, 1297, 1298, 1299, 1300, 1301, 1302, 1303, 1304, 1305, 1306, 1307, 1308, 1309, 1310
 1311, 1312, 1313, 1314, 1315, 1316, 1317, 1318, 1319, 1320, 1321, 1322, 1323
*Elset, elset=FIXEDNODES3, instance=PLATE-1
    1,    2,    3,    4,    5,    6,  115,  116,  117,  118,  119,  120,  121,  122,  123,  124
  125,  126,  127,  128,  129,  130,  131,  132,  133,  134,  135,  136,  137,  138,  139,  140
  141,  142,  143,  144,  145,  146,  147,  148,  149,  150,  151,  152,  153,  154,  155,  156
  157,  158,  159,  160,  161,  162,  163,  164,  165,  166,  167,  168,  169,  170,  171,  172
  173,  174,  175,  176,  177,  178,  179,  180,  181,  182,  183,  184,  185,  186,  187,  188
  189,  190,  191,  192,  193,  194,  195,  196,  197,  198,  199,  200,  201,  202,  203,  204
  205,  206,  207,  208,  209,  210,  211,  212,  213,  214,  215,  216,  217,  218,  219,  220
  221,  222,  229,  230,  231,  232,  233,  234,  235,  236,  237,  238,  239,  240,  241,  242
  243,  244,  245,  246,  247,  248,  249,  250,  251,  252,  253,  254,  255,  256,  257,  258
  259,  260,  261,  262,  263,  264,  265,  266,  267,  268,  269,  270,  271,  272,  273,  274
  275,  276,  277,  278,  279,  280,  281,  282,  283,  284,  285,  286,  287,  288,  289,  290
  291,  292,  293,  294,  295,  296,  297,  298,  299,  300,  301,  302,  303,  304,  305,  306
  307,  308,  309,  310,  311,  312,  313,  314,  315,  316,  317,  318,  319,  320,  321,  322
  323,  324,  325,  326,  327,  328,  329,  330,  331,  332,  333,  334,  335,  336,  337,  338
  339,  340,  341,  342,  343,  344,  345,  346,  347,  348,  349,  350,  351,  352,  353,  354
  355,  356,  357,  358,  359,  360,  361,  362,  363,  364,  365,  366,  367,  368,  369,  370
  371,  372,  373,  374,  375,  376,  377,  378,  379,  380,  381,  382,  383,  384,  385,  386
  387,  388,  389,  390,  391,  392,  393,  394,  395,  396,  397,  398,  399,  400,  401,  402
  403,  404,  405,  406,  407,  408,  409,  410,  411,  412,  413,  414,  415,  416,  417,  418
  419,  420,  421,  422,  423,  424,  425,  426,  427,  428,  429,  430,  431,  432,  433,  434
  435,  436,  437,  438,  439,  440,  441,  442,  443,  444,  445,  446,  447,  448,  449,  450
  451,  452,  453,  454,  455,  456,  457,  458,  459,  460,  461,  462,  463,  464,  465,  466
  467,  468,  469,  470,  471,  472,  473,  474,  475,  476,  477,  478,  479,  480,  481,  482
  483,  484,  485,  486,  487,  488,  489,  490,  491,  492,  493,  494,  495,  496,  497,  498
  499,  500,  501,  502,  503,  504,  505,  506,  507,  508,  509,  510,  511,  512,  513,  514
  515,  516,  517,  518,  519,  520,  521,  522,  523,  524,  525,  526,  527,  528,  529,  530
  531,  532,  533,  534,  535,  536,  537,  538,  539,  540,  541,  542,  543,  544,  545,  546
  547,  548,  549,  550,  551,  552,  553,  554,  555,  556,  557,  558,  559,  560,  561,  562
  563,  564,  565,  566,  567,  568,  569,  570,  571,  572,  573,  574,  575,  576,  577,  578
  579,  580,  581,  582,  583,  584,  585,  586,  587,  588,  589,  590,  591,  592,  593,  594
  595,  596,  597,  598,  599,  600,  601,  602,  603,  604,  605,  606,  607,  608,  609,  610
  611,  612,  613,  614,  615,  616,  617,  618,  619, 1023, 1024, 1025, 1026, 1027, 1028, 1029
 1030, 1031, 1032, 1033, 1034, 1047, 1048, 1049, 1050, 1051, 1052, 1053, 1054, 1055, 1056, 1057
 1058, 1071, 1072, 1073, 1074, 1075, 1076, 1077, 1078, 1079, 1080, 1081, 1082, 1095, 1096, 1097
 1098, 1099, 1100, 1101, 1102, 1103, 1104, 1105, 1106
*Elset, elset=__PICKEDSURF4_S3, internal, instance=PLATE-1, generate
 518,  523,    1
*Elset, elset=__PICKEDSURF4_S4, internal, instance=PLATE-1
  245,  262,  279,  296,  313,  330,  347,  364,  381,  398,  415,  432,  449,  466,  483,  500
  517,  636,  653,  670,  687,  704,  721,  738,  755,  772,  789,  806,  823,  840,  857,  874
  891,  908,  925,  942,  959,  976,  993, 1010
*Elset, elset=_LoadSurf1_S3, internal, instance=PLATE-1, generate
 518,  523,    1
*Elset, elset=_LoadSurf1_S4, internal, instance=PLATE-1
  245,  262,  279,  296,  313,  330,  347,  364,  381,  398,  415,  432,  449,  466,  483,  500
  517,  636,  653,  670,  687,  704,  721,  738,  755,  772,  789,  806,  823,  840,  857,  874
  891,  908,  925,  942,  959,  976,  993, 1010
*Surface, type=ELEMENT, name=LoadSurf1
_LoadSurf1_S3, S3
_LoadSurf1_S4, S4
*End Assembly
** 
** MATERIALS
** 
*Material, name=MATERIAL-1
*Elastic
210000., 0.3
** ----------------------------------------------------------------
** 
** STEP: Step-1
** 
*Step, name=Step-1, nlgeom=NO
*Static
1., 1., 1e-05, 1.
** 
** BOUNDARY CONDITIONS
** 
** Name: Disp-BC-1 Type: Displacement/Rotation
*Boundary
FIXEDNODES1, 1, 1
** Name: Disp-BC-2 Type: Displacement/Rotation
*Boundary
FIXEDNODES2, 2, 2
** Name: Disp-BC-3 Type: Displacement/Rotation
*Boundary
FIXEDNODES3, 3, 3
** 
** LOADS
** 
** Name: SURFFORCE-1   Type: Pressure
*Dsload
LoadSurf1, P, -100.
** 
** OUTPUT REQUESTS
** 
*Restart, write, frequency=0
** 
** FIELD OUTPUT: F-Output-2
** 
*Output, field
*Element Output, directions=YES
E, NFORC, S
** 
** FIELD OUTPUT: F-Output-1
** 
*Node Output
U, 
** 
** HISTORY OUTPUT: H-Output-1
** 
*Output, history, variable=PRESELECT
*End Step
